
     Program PWSCF v.7.5 starts on 15Jun2026 at 22: 0:37 

     This program is part of the open-source Quantum ESPRESSO suite
     for quantum simulation of materials; please cite
         "P. Giannozzi et al., J. Phys.:Condens. Matter 21 395502 (2009);
         "P. Giannozzi et al., J. Phys.:Condens. Matter 29 465901 (2017);
         "P. Giannozzi et al., J. Chem. Phys. 152 154105 (2020);
          URL http://www.quantum-espresso.org", 
     in publications or presentations arising from this work. More details at
     http://www.quantum-espresso.org/quote

     Parallel version (MPI & OpenMP), running on     128 processor cores
     Number of MPI processes:                 8
     Threads/MPI process:                    16

     MPI processes distributed on     2 nodes
     230722 MiB available memory on the printing compute node when the environment starts
 
     Reading input from nscf.in

     Current dimensions of program PWSCF are:
     Max number of different atomic species (ntypx) = 10
     Max number of k-points (npk) =  40000
     Max angular momentum in pseudopotentials (lmaxx) =  4

     Atomic positions and unit cell read from directory:
     ./CrI3.save/
 
     Message from routine setup:
     using ibrav=0 with symmetry is DISCOURAGED, use correct ibrav instead
 
     K-points division:     npool     =       8
     Subspace diagonalization in iterative solution of the eigenvalue problem:
     a serial algorithm will be used

 
     G-vector sticks info
     --------------------
     sticks:   dense  smooth     PW     G-vecs:    dense   smooth      PW
     Sum        3691    3691   1003               479179   479179   66599
 
     Using Slab Decomposition
 


     bravais-lattice index     =            0
     lattice parameter (alat)  =      12.9767  a.u.
     unit-cell volume          =    4960.5953 (a.u.)^3
     number of atoms/cell      =            8
     number of atomic types    =            2
     number of electrons       =        70.00
     number of Kohn-Sham states=          800
     kinetic-energy cutoff     =      80.0000  Ry
     charge density cutoff     =     320.0000  Ry
     Exchange-correlation= PBE
                           (   1   4   3   4   0   0   0)
     Non magnetic calculation with spin-orbit


     GPU acceleration is ACTIVE.  4 visible GPUs per MPI rank


     GPU used by master process:

        Device Number: 0
        Device name: NVIDIA A100-SXM4-80GB
        Compute capability : 80
        Ratio of single to double precision performance  : 2
        Memory Clock Rate (KHz): 1593000
        Memory Bus Width (bits): 5120
        Peak Memory Bandwidth (GB/s): ******

     celldm(1)=  12.976749  celldm(2)=   0.000000  celldm(3)=   0.000000
     celldm(4)=   0.000000  celldm(5)=   0.000000  celldm(6)=   0.000000

     crystal axes: (cart. coord. in units of alat)
               a(1) = (   1.000000   0.000000   0.000000 )  
               a(2) = (  -0.500000   0.866025   0.000000 )  
               a(3) = (   0.000000   0.000000   2.621232 )  

     reciprocal axes: (cart. coord. in units 2 pi/alat)
               b(1) = (  1.000000  0.577350 -0.000000 )  
               b(2) = (  0.000000  1.154701  0.000000 )  
               b(3) = (  0.000000 -0.000000  0.381500 )  


     PseudoPot. # 1 for Cr read from file:
     ./Cr.upf
     MD5 check sum: e4755fb39f753e55e5d2a46de4395b17
     Pseudo is Norm-conserving + core correction, Zval = 14.0
     Generated using ONCVPSP code by D. R. Hamann
     Using radial grid of 1638 points, 10 beta functions with: 
                l(1) =   0
                l(2) =   0
                l(3) =   1
                l(4) =   1
                l(5) =   1
                l(6) =   1
                l(7) =   2
                l(8) =   2
                l(9) =   2
               l(10) =   2

     PseudoPot. # 2 for I  read from file:
     ./I.upf
     MD5 check sum: 301f7009ca0a2b18b0adf53dca02d42f
     Pseudo is Norm-conserving + core correction, Zval =  7.0
     Generated using ONCVPSP code by D. R. Hamann
     Using radial grid of 1210 points, 10 beta functions with: 
                l(1) =   0
                l(2) =   0
                l(3) =   1
                l(4) =   1
                l(5) =   1
                l(6) =   1
                l(7) =   2
                l(8) =   2
                l(9) =   2
               l(10) =   2

     atomic species   valence    mass     pseudopotential
     Cr               14.00    51.99600     Cr( 1.00)
     I                 7.00   126.90400     I ( 1.00)

      6 Sym. Ops., with inversion, found


                                    s                        frac. trans.

      isym =  1     identity                                     

 cryst.   s( 1) = (     1          0          0      )
                  (     0          1          0      )
                  (     0          0          1      )

 cart.    s( 1) = (  1.0000000 -0.0000000  0.0000000 )
                  (  0.0000000  1.0000000  0.0000000 )
                  (  0.0000000  0.0000000  1.0000000 )


      isym =  2     120 deg rotation - cryst. axis [0,0,1]       

 cryst.   s( 2) = (     0          1          0      )
                  (    -1         -1          0      )
                  (     0          0          1      )

 cart.    s( 2) = ( -0.5000000 -0.8660255  0.0000000 )
                  (  0.8660253 -0.5000000  0.0000000 )
                  (  0.0000000  0.0000000  1.0000000 )


      isym =  3     120 deg rotation - cryst. axis [0,0,-1]      

 cryst.   s( 3) = (    -1         -1          0      )
                  (     1          0          0      )
                  (     0          0          1      )

 cart.    s( 3) = ( -0.5000000  0.8660255  0.0000000 )
                  ( -0.8660253 -0.5000000  0.0000000 )
                  (  0.0000000  0.0000000  1.0000000 )


      isym =  4     inversion                                    

 cryst.   s( 4) = (    -1          0          0      )
                  (     0         -1          0      )
                  (     0          0         -1      )

 cart.    s( 4) = ( -1.0000000  0.0000000  0.0000000 )
                  (  0.0000000 -1.0000000  0.0000000 )
                  (  0.0000000  0.0000000 -1.0000000 )


      isym =  5     inv. 120 deg rotation - cryst. axis [0,0,1]  

 cryst.   s( 5) = (     0         -1          0      )
                  (     1          1          0      )
                  (     0          0         -1      )

 cart.    s( 5) = (  0.5000000  0.8660255  0.0000000 )
                  ( -0.8660253  0.5000000  0.0000000 )
                  (  0.0000000  0.0000000 -1.0000000 )


      isym =  6     inv. 120 deg rotation - cryst. axis [0,0,-1] 

 cryst.   s( 6) = (     1          1          0      )
                  (    -1          0          0      )
                  (     0          0         -1      )

 cart.    s( 6) = (  0.5000000 -0.8660255  0.0000000 )
                  (  0.8660253  0.5000000  0.0000000 )
                  (  0.0000000  0.0000000 -1.0000000 )


   Cartesian axes

     site n.     atom                  positions (alat units)
         1        Cr     tau(   1) = (  -0.0000000   0.5773502   0.0009902  )
         2        Cr     tau(   2) = (   0.5000000   0.2886751   2.6202417  )
         3        I      tau(   3) = (  -0.1495050   0.8649890   2.3934629  )
         4        I      tau(   4) = (  -0.1743500   0.3040557   2.3934629  )
         5        I      tau(   5) = (   0.3238550   0.5630060   2.3934629  )
         6        I      tau(   6) = (   0.6495050   0.0010363   0.2277690  )
         7        I      tau(   7) = (   0.6743500   0.5619696   0.2277690  )
         8        I      tau(   8) = (   0.1761450   0.3030194   0.2277690  )

   Crystallographic axes

     site n.     atom                  positions (cryst. coord.)
         1        Cr     tau(   1) = (  0.3333333  0.6666667  0.0003778  )
         2        Cr     tau(   2) = (  0.6666667  0.3333333  0.9996222  )
         3        I      tau(   3) = (  0.3498967  0.9988033  0.9131061  )
         4        I      tau(   4) = (  0.0011967  0.3510934  0.9131061  )
         5        I      tau(   5) = (  0.6489066  0.6501033  0.9131061  )
         6        I      tau(   6) = (  0.6501033  0.0011967  0.0868939  )
         7        I      tau(   7) = (  0.9988033  0.6489066  0.0868939  )
         8        I      tau(   8) = (  0.3510934  0.3498967  0.0868939  )

     number of k points=     8
                       cart. coord. in units 2pi/alat
        k(    1) = (   0.0000000   0.0000000   0.0000000), wk =   0.0277778
        k(    2) = (   0.0000000   0.1924501   0.0000000), wk =   0.1666667
        k(    3) = (   0.0000000   0.3849002   0.0000000), wk =   0.1666667
        k(    4) = (   0.0000000  -0.5773503   0.0000000), wk =   0.0833333
        k(    5) = (   0.1666667   0.2886752   0.0000000), wk =   0.1666667
        k(    6) = (   0.1666667   0.4811253   0.0000000), wk =   0.1666667
        k(    7) = (   0.3333333   0.5773503   0.0000000), wk =   0.0555556
        k(    8) = (  -0.1666667   0.4811253   0.0000000), wk =   0.1666667

                       cryst. coord.
        k(    1) = (   0.0000000   0.0000000   0.0000000), wk =   0.0277778
        k(    2) = (   0.0000000   0.1666667   0.0000000), wk =   0.1666667
        k(    3) = (   0.0000000   0.3333333   0.0000000), wk =   0.1666667
        k(    4) = (   0.0000000  -0.5000000   0.0000000), wk =   0.0833333
        k(    5) = (   0.1666667   0.1666667   0.0000000), wk =   0.1666667
        k(    6) = (   0.1666667   0.3333333   0.0000000), wk =   0.1666667
        k(    7) = (   0.3333333   0.3333333   0.0000000), wk =   0.0555556
        k(    8) = (  -0.1666667   0.5000000   0.0000000), wk =   0.1666667

     Dense  grid:   479179 G-vectors     FFT dimensions: (  75,  75, 200)

     Dynamical RAM for                 wfc:    1463.38 MB

     Dynamical RAM for     wfc (w. buffer):    1463.38 MB

     Dynamical RAM for           str. fact:      14.62 MB

     Dynamical RAM for           local pot:       0.00 MB

     Dynamical RAM for          nlocal pot:     248.77 MB

     Dynamical RAM for                qrad:       7.52 MB

     Dynamical RAM for          rho,v,vnew:     190.74 MB

     Dynamical RAM for           G-vectors:      31.07 MB

     Dynamical RAM for          h,s,v(r/c):     468.75 MB

     Dynamical RAM for          <psi|beta>:       6.64 MB

     Dynamical RAM for                 psi:    5853.52 MB

     Dynamical RAM for                hpsi:    5853.52 MB

     Dynamical RAM for      wfcinit/wfcrot:    2209.72 MB

     Estimated static dynamical RAM per process >       2.00 GB

     Estimated max dynamical RAM per process >      13.90 GB

     Estimated total dynamical RAM >     111.17 GB
 ----2D----2D----2D----2D----2D----2D----2D----2D----2D----2D----2D----2D
  The code is running with the 2D cutoff
  Please refer to:
  Sohier, T., Calandra, M., & Mauri, F. (2017), 
  Density functional perturbation theory for gated two-dimensional heterostructures:
  Theoretical developments and application to flexural phonons in graphene.
  Physical Review B, 96(7), 75448. https://doi.org/10.1103/PhysRevB.96.075448
 ----2D----2D----2D----2D----2D----2D----2D----2D----2D----2D----2D----2D

     The potential is recalculated from file :
     ./CrI3.save/charge-density

     Starting wfcs are   88 randomized atomic wfcs +  712 random wfcs

     Band Structure Calculation
     Davidson diagonalization with overlap

     Computing kpt #:     1  of     1 on this pool
     total cpu time spent up to now is       25.5 secs

     ethr =  1.43E-12,  avg # of iterations = 45.5

     total cpu time spent up to now is       25.5 secs

     End of band structure calculation

          k = 0.0000 0.0000 0.0000 ( 59977 PWs)   bands (ev):

   -76.7251 -76.7251 -76.7249 -76.7249 -48.7786 -48.7786 -48.7771 -48.7771
   -47.7533 -47.7533 -47.7501 -47.7501 -47.7484 -47.7484 -47.7481 -47.7481
   -18.4426 -18.4426 -17.7243 -17.7243 -17.4176 -17.4176 -17.4155 -17.4155
   -17.3261 -17.3261 -17.3254 -17.3254  -9.9621  -9.9621  -9.5465  -9.5465
    -9.2164  -9.2164  -9.1562  -9.1562  -8.9975  -8.9975  -8.6340  -8.6340
    -8.5996  -8.5996  -8.1030  -8.1030  -7.8174  -7.8174  -7.7539  -7.7539
    -7.7062  -7.7062  -7.4917  -7.4917  -7.2487  -7.2487  -7.0331  -7.0331
    -6.5450  -6.5450  -6.3625  -6.3625  -5.9331  -5.9331  -5.4654  -5.4654
    -5.1196  -5.1196  -5.0348  -5.0348  -5.0305  -5.0305  -4.9267  -4.9267
    -4.7685  -4.7685  -4.7404  -4.7404  -3.7115  -3.7115  -3.6659  -3.6659
    -3.4901  -3.4901  -3.2280  -3.2280  -0.8424  -0.8424  -0.3710  -0.3710
    -0.0063  -0.0063   0.0846   0.0846   0.8304   0.8304   1.2009   1.2009
     1.2647   1.2647   1.2694   1.2694   1.3077   1.3077   1.3092   1.3092
     2.2034   2.2034   2.6200   2.6200   2.6415   2.6415   2.6607   2.6607
     2.7842   2.7842   2.9441   2.9441   3.0989   3.0989   3.2552   3.2552
     3.3746   3.3746   3.4278   3.4278   3.9342   3.9342   4.0048   4.0048
     4.0101   4.0101   4.0516   4.0516   4.2513   4.2513   4.2949   4.2949
     4.3921   4.3921   4.4862   4.4862   4.4974   4.4974   4.5759   4.5759
     5.1211   5.1211   5.2118   5.2118   5.2431   5.2431   5.2591   5.2591
     5.3131   5.3131   5.4128   5.4128   5.4183   5.4183   6.0118   6.0118
     6.3768   6.3768   6.5069   6.5069   6.5314   6.5314   6.5364   6.5364
     6.5858   6.5858   6.9652   6.9652   6.9927   6.9927   7.0581   7.0581
     7.0621   7.0621   7.4109   7.4109   7.4400   7.4400   7.7615   7.7615
     7.7617   7.7617   7.9547   7.9547   7.9579   7.9579   8.0117   8.0117
     8.1497   8.1497   8.6033   8.6033   8.7561   8.7561   9.2963   9.2963
     9.3216   9.3216   9.3255   9.3255   9.3360   9.3360   9.7852   9.7852
     9.8741   9.8741   9.8980   9.8980  10.5380  10.5380  10.6303  10.6303
    10.8474  10.8474  10.8909  10.8909  11.1948  11.1948  11.2282  11.2282
    11.7099  11.7099  11.7241  11.7241  11.8628  11.8628  11.8755  11.8755
    11.8845  11.8845  11.9561  11.9561  12.0462  12.0462  12.1470  12.1470
    12.1496  12.1496  12.3104  12.3104  12.3140  12.3140  12.3543  12.3543
    12.3627  12.3627  12.3796  12.3796  12.4054  12.4054  12.8021  12.8021
    12.8342  12.8342  12.8368  12.8368  12.9449  12.9449  12.9586  12.9586
    13.0969  13.0969  13.1121  13.1121  13.1773  13.1773  13.4966  13.4966
    13.7062  13.7062  13.8650  13.8650  13.8741  13.8741  13.9129  13.9129
    14.0994  14.0994  14.1549  14.1549  14.1980  14.1980  14.4592  14.4592
    14.4616  14.4616  14.4734  14.4734  14.4916  14.4916  14.5770  14.5770
    14.5919  14.5919  14.6722  14.6722  14.7064  14.7064  15.0025  15.0025
    15.0828  15.0828  15.1171  15.1171  15.2238  15.2238  15.3127  15.3127
    15.3748  15.3748  15.3769  15.3769  15.4600  15.4600  15.4726  15.4726
    15.7138  15.7138  15.7572  15.7572  15.8918  15.8918  15.9570  15.9570
    15.9973  15.9973  16.1273  16.1273  16.3171  16.3171  16.5024  16.5024
    16.5127  16.5127  16.9883  16.9883  17.0191  17.0191  17.0195  17.0195
    17.1736  17.1736  17.1922  17.1922  17.3581  17.3581  17.3630  17.3630
    17.5537  17.5537  17.6883  17.6883  17.6939  17.6939  17.7204  17.7204
    17.7210  17.7210  18.0093  18.0093  18.0094  18.0094  18.0229  18.0229
    18.0306  18.0306  18.3276  18.3276  18.3505  18.3505  18.3703  18.3703
    18.3785  18.3785  18.4496  18.4496  18.4510  18.4510  18.6888  18.6888
    18.6950  18.6950  18.9625  18.9625  18.9663  18.9663  18.9948  18.9948
    19.1880  19.1880  19.1898  19.1898  19.2006  19.2006  19.4856  19.4856
    19.5233  19.5233  19.5280  19.5280  19.5392  19.5392  19.5926  19.5926
    20.2002  20.2002  20.2156  20.2156  20.2166  20.2166  20.3090  20.3090
    20.3483  20.3483  20.3650  20.3650  20.4163  20.4163  20.4222  20.4222
    20.4343  20.4343  20.5601  20.5601  20.6338  20.6338  20.6346  20.6346
    20.9412  20.9412  21.0362  21.0362  21.0530  21.0530  21.0875  21.0875
    21.1297  21.1297  21.1443  21.1443  21.2783  21.2783  21.3563  21.3563
    21.4091  21.4091  21.4251  21.4251  21.4363  21.4363  21.5353  21.5353
    21.5367  21.5367  21.5885  21.5885  21.7499  21.7499  21.7508  21.7508
    21.7689  21.7689  21.9178  21.9178  21.9217  21.9217  22.3505  22.3505
    22.3844  22.3844  22.3875  22.3875  22.5084  22.5084  22.7511  22.7511
    22.7601  22.7601  22.7846  22.7846  22.8009  22.8009  22.9593  22.9593
    22.9623  22.9623  22.9732  22.9732  23.0871  23.0871  23.1067  23.1067
    23.1958  23.1958  23.4872  23.4872  23.5513  23.5513  23.5609  23.5609
    23.7479  23.7479  23.7498  23.7498  23.9402  23.9402  24.0784  24.0784
    24.1137  24.1137  24.2853  24.2853  24.3324  24.3324  24.3455  24.3455
    24.4442  24.4442  24.4957  24.4957  24.6576  24.6576  24.7518  24.7518
    24.7872  24.7872  24.7976  24.7976  24.8059  24.8059  24.8112  24.8112
    25.0275  25.0275  25.1264  25.1264  25.1450  25.1450  25.1451  25.1451
    25.1944  25.1944  25.2440  25.2440  25.3045  25.3045  25.3057  25.3057
    25.3174  25.3174  25.3806  25.3806  25.4024  25.4024  25.4164  25.4164
    25.4754  25.4754  25.5962  25.5962  25.5986  25.5986  25.8507  25.8507
    25.9531  25.9531  26.2103  26.2103  26.2695  26.2695  26.2801  26.2801
    26.3470  26.3470  26.4765  26.4765  26.6010  26.6010  26.6151  26.6151
    26.6223  26.6223  26.6605  26.6605  26.9145  26.9145  26.9443  26.9443
    26.9741  26.9741  26.9972  26.9972  27.0065  27.0065  27.2108  27.2108
    27.2210  27.2210  27.3366  27.3366  27.3873  27.3873  27.4494  27.4494
    27.6410  27.6410  27.7771  27.7771  27.8193  27.8193  27.8819  27.8819
    28.1308  28.1308  28.1435  28.1435  28.1830  28.1830  28.2074  28.2074
    28.2151  28.2151  28.3255  28.3255  28.3646  28.3646  28.4016  28.4016
    28.6800  28.6800  28.6859  28.6859  28.7001  28.7001  28.7741  28.7741
    28.8129  28.8129  28.8412  28.8412  28.8544  28.8544  29.1466  29.1466
    29.1634  29.1634  29.2744  29.2744  29.4431  29.4431  29.5647  29.5647
    29.5674  29.5674  29.5710  29.5710  29.5724  29.5724  29.7610  29.7610
    29.7630  29.7630  29.8170  29.8170  29.9871  29.9871  30.0539  30.0539
    30.0551  30.0551  30.2085  30.2085  30.2134  30.2134  30.6610  30.6610
    30.7401  30.7401  30.7463  30.7463  30.7564  30.7564  30.7579  30.7579
    30.7688  30.7688  30.9032  30.9032  30.9035  30.9035  30.9291  30.9291
    30.9353  30.9353  30.9427  30.9427  30.9594  30.9594  31.1836  31.1836
    31.3469  31.3469  31.3776  31.3776  31.4589  31.4589  31.4609  31.4609
    31.5427  31.5427  31.6039  31.6039  31.6053  31.6053  31.6447  31.6447
    31.6493  31.6493  31.8619  31.8619  31.8948  31.8948  31.9014  31.9014
    31.9574  31.9574  32.1068  32.1068  32.1098  32.1098  32.1661  32.1661
    32.1876  32.1876  32.2080  32.2080  32.3101  32.3101  32.4402  32.4402
    32.6231  32.6231  32.6385  32.6385  32.7826  32.7826  32.8317  32.8317
    32.8349  32.8349  32.9747  32.9747  33.0181  33.0181  33.0232  33.0232
    33.0391  33.0391  33.1861  33.1861  33.2123  33.2123  33.2168  33.2168
    33.2740  33.2740  33.3298  33.3298  33.3683  33.3683  33.3791  33.3791
    33.4483  33.4483  33.4596  33.4596  33.4833  33.4833  33.4837  33.4837
    33.6352  33.6352  33.6514  33.6514  33.6725  33.6725  33.6787  33.6787
    33.8313  33.8313  33.9856  33.9856  34.0019  34.0019  34.0025  34.0025

     occupation numbers 
     1.0000   1.0000   1.0000   1.0000   1.0000   1.0000   1.0000   1.0000
     1.0000   1.0000   1.0000   1.0000   1.0000   1.0000   1.0000   1.0000
     1.0000   1.0000   1.0000   1.0000   1.0000   1.0000   1.0000   1.0000
     1.0000   1.0000   1.0000   1.0000   1.0000   1.0000   1.0000   1.0000
     1.0000   1.0000   1.0000   1.0000   1.0000   1.0000   1.0000   1.0000
     1.0000   1.0000   1.0000   1.0000   1.0000   1.0000   1.0000   1.0000
     1.0000   1.0000   1.0000   1.0000   1.0000   1.0000   1.0000   1.0000
     1.0000   1.0000   1.0000   1.0000   1.0000   1.0000   1.0000   1.0000
     1.0000   1.0000   1.0000   1.0000   1.0000   1.0000   0.0000   0.0000
     0.0000   0.0000   0.0000   0.0000   0.0000   0.0000   0.0000   0.0000
     0.0000   0.0000   0.0000   0.0000   0.0000   0.0000   0.0000   0.0000
     0.0000   0.0000   0.0000   0.0000   0.0000   0.0000   0.0000   0.0000
     0.0000   0.0000   0.0000   0.0000   0.0000   0.0000   0.0000   0.0000
     0.0000   0.0000   0.0000   0.0000   0.0000   0.0000   0.0000   0.0000
     0.0000   0.0000   0.0000   0.0000   0.0000   0.0000   0.0000   0.0000
     0.0000   0.0000   0.0000   0.0000   0.0000   0.0000   0.0000   0.0000
     0.0000   0.0000   0.0000   0.0000   0.0000   0.0000   0.0000   0.0000
     0.0000   0.0000   0.0000   0.0000   0.0000   0.0000   0.0000   0.0000
     0.0000   0.0000   0.0000   0.0000   0.0000   0.0000   0.0000   0.0000
     0.0000   0.0000   0.0000   0.0000   0.0000   0.0000   0.0000   0.0000
     0.0000   0.0000   0.0000   0.0000   0.0000   0.0000   0.0000   0.0000
     0.0000   0.0000   0.0000   0.0000   0.0000   0.0000   0.0000   0.0000
     0.0000   0.0000   0.0000   0.0000   0.0000   0.0000   0.0000   0.0000
     0.0000   0.0000   0.0000   0.0000   0.0000   0.0000   0.0000   0.0000
     0.0000   0.0000   0.0000   0.0000   0.0000   0.0000   0.0000   0.0000
     0.0000   0.0000   0.0000   0.0000   0.0000   0.0000   0.0000   0.0000
     0.0000   0.0000   0.0000   0.0000   0.0000   0.0000   0.0000   0.0000
     0.0000   0.0000   0.0000   0.0000   0.0000   0.0000   0.0000   0.0000
     0.0000   0.0000   0.0000   0.0000   0.0000   0.0000   0.0000   0.0000
     0.0000   0.0000   0.0000   0.0000   0.0000   0.0000   0.0000   0.0000
     0.0000   0.0000   0.0000   0.0000   0.0000   0.0000   0.0000   0.0000
     0.0000   0.0000   0.0000   0.0000   0.0000   0.0000   0.0000   0.0000
     0.0000   0.0000   0.0000   0.0000   0.0000   0.0000   0.0000   0.0000
     0.0000   0.0000   0.0000   0.0000   0.0000   0.0000   0.0000   0.0000
     0.0000   0.0000   0.0000   0.0000   0.0000   0.0000   0.0000   0.0000
     0.0000   0.0000   0.0000   0.0000   0.0000   0.0000   0.0000   0.0000
     0.0000   0.0000   0.0000   0.0000   0.0000   0.0000   0.0000   0.0000
     0.0000   0.0000   0.0000   0.0000   0.0000   0.0000   0.0000   0.0000
     0.0000   0.0000   0.0000   0.0000   0.0000   0.0000   0.0000   0.0000
     0.0000   0.0000   0.0000   0.0000   0.0000   0.0000   0.0000   0.0000
     0.0000   0.0000   0.0000   0.0000   0.0000   0.0000   0.0000   0.0000
     0.0000   0.0000   0.0000   0.0000   0.0000   0.0000   0.0000   0.0000
     0.0000   0.0000   0.0000   0.0000   0.0000   0.0000   0.0000   0.0000
     0.0000   0.0000   0.0000   0.0000   0.0000   0.0000   0.0000   0.0000
     0.0000   0.0000   0.0000   0.0000   0.0000   0.0000   0.0000   0.0000
     0.0000   0.0000   0.0000   0.0000   0.0000   0.0000   0.0000   0.0000
     0.0000   0.0000   0.0000   0.0000   0.0000   0.0000   0.0000   0.0000
     0.0000   0.0000   0.0000   0.0000   0.0000   0.0000   0.0000   0.0000
     0.0000   0.0000   0.0000   0.0000   0.0000   0.0000   0.0000   0.0000
     0.0000   0.0000   0.0000   0.0000   0.0000   0.0000   0.0000   0.0000
     0.0000   0.0000   0.0000   0.0000   0.0000   0.0000   0.0000   0.0000
     0.0000   0.0000   0.0000   0.0000   0.0000   0.0000   0.0000   0.0000
     0.0000   0.0000   0.0000   0.0000   0.0000   0.0000   0.0000   0.0000
     0.0000   0.0000   0.0000   0.0000   0.0000   0.0000   0.0000   0.0000
     0.0000   0.0000   0.0000   0.0000   0.0000   0.0000   0.0000   0.0000
     0.0000   0.0000   0.0000   0.0000   0.0000   0.0000   0.0000   0.0000
     0.0000   0.0000   0.0000   0.0000   0.0000   0.0000   0.0000   0.0000
     0.0000   0.0000   0.0000   0.0000   0.0000   0.0000   0.0000   0.0000
     0.0000   0.0000   0.0000   0.0000   0.0000   0.0000   0.0000   0.0000
     0.0000   0.0000   0.0000   0.0000   0.0000   0.0000   0.0000   0.0000
     0.0000   0.0000   0.0000   0.0000   0.0000   0.0000   0.0000   0.0000
     0.0000   0.0000   0.0000   0.0000   0.0000   0.0000   0.0000   0.0000
     0.0000   0.0000   0.0000   0.0000   0.0000   0.0000   0.0000   0.0000
     0.0000   0.0000   0.0000   0.0000   0.0000   0.0000   0.0000   0.0000
     0.0000   0.0000   0.0000   0.0000   0.0000   0.0000   0.0000   0.0000
     0.0000   0.0000   0.0000   0.0000   0.0000   0.0000   0.0000   0.0000
     0.0000   0.0000   0.0000   0.0000   0.0000   0.0000   0.0000   0.0000
     0.0000   0.0000   0.0000   0.0000   0.0000   0.0000   0.0000   0.0000
     0.0000   0.0000   0.0000   0.0000   0.0000   0.0000   0.0000   0.0000
     0.0000   0.0000   0.0000   0.0000   0.0000   0.0000   0.0000   0.0000
     0.0000   0.0000   0.0000   0.0000   0.0000   0.0000   0.0000   0.0000
     0.0000   0.0000   0.0000   0.0000   0.0000   0.0000   0.0000   0.0000
     0.0000   0.0000   0.0000   0.0000   0.0000   0.0000   0.0000   0.0000
     0.0000   0.0000   0.0000   0.0000   0.0000   0.0000   0.0000   0.0000
     0.0000   0.0000   0.0000   0.0000   0.0000   0.0000   0.0000   0.0000
     0.0000   0.0000   0.0000   0.0000   0.0000   0.0000   0.0000   0.0000
     0.0000   0.0000   0.0000   0.0000   0.0000   0.0000   0.0000   0.0000
     0.0000   0.0000   0.0000   0.0000   0.0000   0.0000   0.0000   0.0000
     0.0000   0.0000   0.0000   0.0000   0.0000   0.0000   0.0000   0.0000
     0.0000   0.0000   0.0000   0.0000   0.0000   0.0000   0.0000   0.0000
     0.0000   0.0000   0.0000   0.0000   0.0000   0.0000   0.0000   0.0000
     0.0000   0.0000   0.0000   0.0000   0.0000   0.0000   0.0000   0.0000
     0.0000   0.0000   0.0000   0.0000   0.0000   0.0000   0.0000   0.0000
     0.0000   0.0000   0.0000   0.0000   0.0000   0.0000   0.0000   0.0000
     0.0000   0.0000   0.0000   0.0000   0.0000   0.0000   0.0000   0.0000
     0.0000   0.0000   0.0000   0.0000   0.0000   0.0000   0.0000   0.0000
     0.0000   0.0000   0.0000   0.0000   0.0000   0.0000   0.0000   0.0000
     0.0000   0.0000   0.0000   0.0000   0.0000   0.0000   0.0000   0.0000
     0.0000   0.0000   0.0000   0.0000   0.0000   0.0000   0.0000   0.0000
     0.0000   0.0000   0.0000   0.0000   0.0000   0.0000   0.0000   0.0000
     0.0000   0.0000   0.0000   0.0000   0.0000   0.0000   0.0000   0.0000
     0.0000   0.0000   0.0000   0.0000   0.0000   0.0000   0.0000   0.0000
     0.0000   0.0000   0.0000   0.0000   0.0000   0.0000   0.0000   0.0000
     0.0000   0.0000   0.0000   0.0000   0.0000   0.0000   0.0000   0.0000
     0.0000   0.0000   0.0000   0.0000   0.0000   0.0000   0.0000   0.0000
     0.0000   0.0000   0.0000   0.0000   0.0000   0.0000   0.0000   0.0000
     0.0000   0.0000   0.0000   0.0000   0.0000   0.0000   0.0000   0.0000
     0.0000   0.0000   0.0000   0.0000   0.0000   0.0000   0.0000   0.0000
     0.0000   0.0000   0.0000   0.0000   0.0000   0.0000   0.0000   0.0000
     0.0000   0.0000   0.0000   0.0000   0.0000   0.0000   0.0000   0.0000

          k = 0.0000 0.1925 0.0000 ( 59970 PWs)   bands (ev):

   -76.7251 -76.7251 -76.7249 -76.7249 -48.7785 -48.7785 -48.7771 -48.7771
   -47.7531 -47.7531 -47.7503 -47.7503 -47.7483 -47.7483 -47.7481 -47.7481
   -18.3850 -18.3850 -17.6912 -17.6912 -17.4952 -17.4952 -17.4481 -17.4481
   -17.3323 -17.3323 -17.3312 -17.3312  -9.9682  -9.9682  -9.5359  -9.5359
    -9.1946  -9.1946  -9.1740  -9.1740  -9.0467  -9.0467  -8.6350  -8.6350
    -8.2952  -8.2952  -8.0408  -8.0408  -7.8338  -7.8338  -7.7441  -7.7441
    -7.6478  -7.6478  -7.4317  -7.4317  -7.2338  -7.2338  -7.0132  -7.0131
    -6.6158  -6.6158  -6.4464  -6.4464  -6.1362  -6.1362  -5.7703  -5.7703
    -5.1203  -5.1203  -4.9881  -4.9881  -4.9507  -4.9507  -4.8453  -4.8453
    -4.7788  -4.7788  -4.7251  -4.7251  -3.7189  -3.7189  -3.6479  -3.6479
    -3.5453  -3.5453  -3.3499  -3.3498  -0.5881  -0.5881  -0.3465  -0.3465
     0.1302   0.1302   0.4483   0.4483   0.5736   0.5736   0.8303   0.8303
     1.1946   1.1946   1.3965   1.3965   1.4618   1.4618   1.6851   1.6851
     2.0819   2.0819   2.3167   2.3167   2.4864   2.4864   2.5165   2.5165
     2.5910   2.5910   2.7623   2.7623   2.8031   2.8031   3.1034   3.1034
     3.1587   3.1587   3.3130   3.3130   3.3725   3.3725   3.7343   3.7343
     3.8684   3.8684   3.9906   3.9906   4.0924   4.0924   4.1069   4.1069
     4.3944   4.3944   4.5298   4.5298   4.7394   4.7394   4.8387   4.8387
     5.0229   5.0229   5.1032   5.1032   5.3379   5.3379   5.4766   5.4766
     5.6061   5.6061   5.7286   5.7286   5.8278   5.8278   5.8937   5.8937
     6.1972   6.1972   6.5301   6.5301   6.6638   6.6638   6.8366   6.8366
     6.9868   6.9868   7.0823   7.0823   7.2792   7.2792   7.3247   7.3247
     7.5397   7.5397   7.7798   7.7798   7.9252   7.9252   8.0397   8.0397
     8.0966   8.0966   8.3942   8.3942   8.4133   8.4133   8.4281   8.4281
     8.8046   8.8046   8.8908   8.8908   9.0222   9.0222   9.1082   9.1082
     9.2995   9.2995   9.3292   9.3292   9.4674   9.4674   9.5301   9.5301
     9.8775   9.8775  10.1507  10.1507  10.1686  10.1686  10.2073  10.2073
    10.6604  10.6604  10.6911  10.6911  10.7830  10.7830  10.8083  10.8083
    11.0692  11.0692  11.1677  11.1677  11.2517  11.2517  11.3211  11.3211
    11.4509  11.4509  11.6503  11.6503  11.7445  11.7445  11.8058  11.8058
    11.9084  11.9084  12.0134  12.0134  12.0615  12.0615  12.2191  12.2191
    12.3919  12.3919  12.5689  12.5689  12.5934  12.5934  12.7844  12.7844
    12.9290  12.9290  12.9446  12.9446  13.0553  13.0553  13.1187  13.1187
    13.1614  13.1614  13.2286  13.2286  13.2782  13.2782  13.2863  13.2863
    13.4398  13.4398  13.4638  13.4638  13.6592  13.6592  13.7197  13.7197
    14.0009  14.0010  14.0882  14.0882  14.1426  14.1426  14.2183  14.2183
    14.2784  14.2784  14.4513  14.4513  14.5198  14.5198  14.5491  14.5491
    14.6370  14.6370  14.6675  14.6675  14.8649  14.8649  14.9579  14.9579
    15.0769  15.0769  15.2101  15.2101  15.2982  15.2982  15.3722  15.3722
    15.5351  15.5351  15.5699  15.5699  15.7138  15.7138  15.7339  15.7339
    15.8796  15.8796  16.0023  16.0023  16.0300  16.0300  16.0822  16.0822
    16.1416  16.1416  16.3370  16.3370  16.4240  16.4240  16.5539  16.5539
    16.6371  16.6371  16.6946  16.6946  16.9012  16.9012  16.9726  16.9726
    17.0247  17.0247  17.0459  17.0459  17.0935  17.0935  17.2346  17.2346
    17.3100  17.3100  17.3680  17.3680  17.4177  17.4177  17.6336  17.6336
    17.8369  17.8369  17.9336  17.9336  18.0176  18.0176  18.1323  18.1323
    18.2931  18.2931  18.4014  18.4014  18.5020  18.5020  18.6197  18.6197
    18.6586  18.6586  18.6877  18.6877  18.7503  18.7503  18.8342  18.8342
    18.9494  18.9494  18.9636  18.9636  19.0978  19.0978  19.1321  19.1321
    19.2282  19.2282  19.3236  19.3236  19.4028  19.4028  19.4579  19.4579
    19.4918  19.4918  19.6531  19.6531  19.6649  19.6649  19.7692  19.7692
    19.9629  19.9629  20.0046  20.0046  20.0639  20.0639  20.0743  20.0743
    20.1179  20.1179  20.1688  20.1688  20.2132  20.2132  20.3649  20.3649
    20.3808  20.3808  20.5120  20.5120  20.5463  20.5463  20.6665  20.6665
    20.7768  20.7768  20.9909  20.9909  21.0050  21.0050  21.1211  21.1211
    21.1384  21.1384  21.1825  21.1825  21.2157  21.2157  21.3325  21.3325
    21.3819  21.3819  21.4259  21.4259  21.4435  21.4435  21.5370  21.5370
    21.6767  21.6767  21.7083  21.7083  21.7984  21.7984  21.9365  21.9365
    22.0161  22.0161  22.1085  22.1085  22.2413  22.2413  22.2712  22.2712
    22.3778  22.3778  22.5303  22.5303  22.5891  22.5891  22.6367  22.6367
    22.6972  22.6972  22.7785  22.7785  22.8986  22.8986  22.9942  22.9942
    23.0195  23.0195  23.1484  23.1484  23.1946  23.1946  23.3172  23.3172
    23.4556  23.4556  23.5090  23.5090  23.6527  23.6527  23.6856  23.6856
    23.6945  23.6945  23.8059  23.8059  23.8757  23.8757  24.0166  24.0166
    24.0437  24.0437  24.0921  24.0921  24.1314  24.1314  24.1530  24.1530
    24.2643  24.2643  24.3150  24.3150  24.3937  24.3937  24.4321  24.4321
    24.4756  24.4756  24.5761  24.5761  24.5965  24.5965  24.7060  24.7060
    24.8220  24.8220  24.9155  24.9155  25.0102  25.0102  25.0613  25.0613
    25.1694  25.1694  25.3525  25.3525  25.4464  25.4464  25.4830  25.4830
    25.5070  25.5070  25.5612  25.5612  25.6989  25.6989  25.7973  25.7973
    25.9456  25.9456  25.9692  25.9692  25.9974  25.9974  26.1071  26.1071
    26.1402  26.1402  26.2520  26.2520  26.3880  26.3880  26.4157  26.4157
    26.4414  26.4414  26.4651  26.4651  26.6205  26.6205  26.7548  26.7548
    26.7969  26.7969  26.8233  26.8233  26.9256  26.9256  26.9351  26.9351
    27.0169  27.0169  27.0505  27.0505  27.1254  27.1254  27.1702  27.1702
    27.2873  27.2873  27.3245  27.3245  27.3837  27.3837  27.5087  27.5087
    27.5660  27.5660  27.6032  27.6032  27.7045  27.7045  27.7592  27.7592
    27.8778  27.8778  27.9556  27.9556  28.0565  28.0565  28.1619  28.1619
    28.2070  28.2070  28.3675  28.3675  28.4327  28.4327  28.4767  28.4767
    28.5804  28.5804  28.6139  28.6139  28.6440  28.6440  28.6822  28.6822
    28.8549  28.8549  28.9242  28.9242  28.9495  28.9495  29.1208  29.1208
    29.1955  29.1955  29.2704  29.2704  29.3362  29.3362  29.5702  29.5702
    29.5823  29.5823  29.6959  29.6959  29.7280  29.7280  29.8163  29.8163
    29.8734  29.8734  29.9072  29.9072  29.9851  29.9851  30.1100  30.1100
    30.2260  30.2260  30.2822  30.2822  30.3233  30.3233  30.3905  30.3905
    30.5082  30.5082  30.5948  30.5948  30.6114  30.6114  30.6358  30.6358
    30.6775  30.6775  30.7338  30.7338  30.7531  30.7531  30.9544  30.9544
    30.9863  30.9863  31.0840  31.0840  31.1130  31.1130  31.1358  31.1358
    31.2439  31.2439  31.2612  31.2612  31.3044  31.3044  31.4265  31.4265
    31.4313  31.4313  31.4392  31.4392  31.5611  31.5611  31.6218  31.6218
    31.7025  31.7025  31.7728  31.7728  31.7949  31.7949  31.8320  31.8320
    31.9111  31.9111  32.0552  32.0552  32.1395  32.1395  32.1824  32.1824
    32.2119  32.2119  32.2847  32.2847  32.3888  32.3888  32.5112  32.5112
    32.5352  32.5352  32.5616  32.5616  32.6980  32.6980  32.8042  32.8042
    32.8332  32.8332  32.8884  32.8884  33.0000  33.0000  33.0040  33.0040
    33.0595  33.0595  33.0785  33.0785  33.1316  33.1316  33.2171  33.2171
    33.2497  33.2497  33.2959  33.2959  33.3417  33.3417  33.4358  33.4358
    33.5835  33.5835  33.6833  33.6833  33.7716  33.7716  33.8947  33.8947
    33.9226  33.9226  34.0468  34.0468  34.0846  34.0846  34.0921  34.0921
    34.2071  34.2071  34.2552  34.2552  34.2982  34.2982  34.3461  34.3461

     occupation numbers 
     1.0000   1.0000   1.0000   1.0000   1.0000   1.0000   1.0000   1.0000
     1.0000   1.0000   1.0000   1.0000   1.0000   1.0000   1.0000   1.0000
     1.0000   1.0000   1.0000   1.0000   1.0000   1.0000   1.0000   1.0000
     1.0000   1.0000   1.0000   1.0000   1.0000   1.0000   1.0000   1.0000
     1.0000   1.0000   1.0000   1.0000   1.0000   1.0000   1.0000   1.0000
     1.0000   1.0000   1.0000   1.0000   1.0000   1.0000   1.0000   1.0000
     1.0000   1.0000   1.0000   1.0000   1.0000   1.0000   1.0000   1.0000
     1.0000   1.0000   1.0000   1.0000   1.0000   1.0000   1.0000   1.0000
     1.0000   1.0000   1.0000   1.0000   1.0000   1.0000   0.0000   0.0000
     0.0000   0.0000   0.0000   0.0000   0.0000   0.0000   0.0000   0.0000
     0.0000   0.0000   0.0000   0.0000   0.0000   0.0000   0.0000   0.0000
     0.0000   0.0000   0.0000   0.0000   0.0000   0.0000   0.0000   0.0000
     0.0000   0.0000   0.0000   0.0000   0.0000   0.0000   0.0000   0.0000
     0.0000   0.0000   0.0000   0.0000   0.0000   0.0000   0.0000   0.0000
     0.0000   0.0000   0.0000   0.0000   0.0000   0.0000   0.0000   0.0000
     0.0000   0.0000   0.0000   0.0000   0.0000   0.0000   0.0000   0.0000
     0.0000   0.0000   0.0000   0.0000   0.0000   0.0000   0.0000   0.0000
     0.0000   0.0000   0.0000   0.0000   0.0000   0.0000   0.0000   0.0000
     0.0000   0.0000   0.0000   0.0000   0.0000   0.0000   0.0000   0.0000
     0.0000   0.0000   0.0000   0.0000   0.0000   0.0000   0.0000   0.0000
     0.0000   0.0000   0.0000   0.0000   0.0000   0.0000   0.0000   0.0000
     0.0000   0.0000   0.0000   0.0000   0.0000   0.0000   0.0000   0.0000
     0.0000   0.0000   0.0000   0.0000   0.0000   0.0000   0.0000   0.0000
     0.0000   0.0000   0.0000   0.0000   0.0000   0.0000   0.0000   0.0000
     0.0000   0.0000   0.0000   0.0000   0.0000   0.0000   0.0000   0.0000
     0.0000   0.0000   0.0000   0.0000   0.0000   0.0000   0.0000   0.0000
     0.0000   0.0000   0.0000   0.0000   0.0000   0.0000   0.0000   0.0000
     0.0000   0.0000   0.0000   0.0000   0.0000   0.0000   0.0000   0.0000
     0.0000   0.0000   0.0000   0.0000   0.0000   0.0000   0.0000   0.0000
     0.0000   0.0000   0.0000   0.0000   0.0000   0.0000   0.0000   0.0000
     0.0000   0.0000   0.0000   0.0000   0.0000   0.0000   0.0000   0.0000
     0.0000   0.0000   0.0000   0.0000   0.0000   0.0000   0.0000   0.0000
     0.0000   0.0000   0.0000   0.0000   0.0000   0.0000   0.0000   0.0000
     0.0000   0.0000   0.0000   0.0000   0.0000   0.0000   0.0000   0.0000
     0.0000   0.0000   0.0000   0.0000   0.0000   0.0000   0.0000   0.0000
     0.0000   0.0000   0.0000   0.0000   0.0000   0.0000   0.0000   0.0000
     0.0000   0.0000   0.0000   0.0000   0.0000   0.0000   0.0000   0.0000
     0.0000   0.0000   0.0000   0.0000   0.0000   0.0000   0.0000   0.0000
     0.0000   0.0000   0.0000   0.0000   0.0000   0.0000   0.0000   0.0000
     0.0000   0.0000   0.0000   0.0000   0.0000   0.0000   0.0000   0.0000
     0.0000   0.0000   0.0000   0.0000   0.0000   0.0000   0.0000   0.0000
     0.0000   0.0000   0.0000   0.0000   0.0000   0.0000   0.0000   0.0000
     0.0000   0.0000   0.0000   0.0000   0.0000   0.0000   0.0000   0.0000
     0.0000   0.0000   0.0000   0.0000   0.0000   0.0000   0.0000   0.0000
     0.0000   0.0000   0.0000   0.0000   0.0000   0.0000   0.0000   0.0000
     0.0000   0.0000   0.0000   0.0000   0.0000   0.0000   0.0000   0.0000
     0.0000   0.0000   0.0000   0.0000   0.0000   0.0000   0.0000   0.0000
     0.0000   0.0000   0.0000   0.0000   0.0000   0.0000   0.0000   0.0000
     0.0000   0.0000   0.0000   0.0000   0.0000   0.0000   0.0000   0.0000
     0.0000   0.0000   0.0000   0.0000   0.0000   0.0000   0.0000   0.0000
     0.0000   0.0000   0.0000   0.0000   0.0000   0.0000   0.0000   0.0000
     0.0000   0.0000   0.0000   0.0000   0.0000   0.0000   0.0000   0.0000
     0.0000   0.0000   0.0000   0.0000   0.0000   0.0000   0.0000   0.0000
     0.0000   0.0000   0.0000   0.0000   0.0000   0.0000   0.0000   0.0000
     0.0000   0.0000   0.0000   0.0000   0.0000   0.0000   0.0000   0.0000
     0.0000   0.0000   0.0000   0.0000   0.0000   0.0000   0.0000   0.0000
     0.0000   0.0000   0.0000   0.0000   0.0000   0.0000   0.0000   0.0000
     0.0000   0.0000   0.0000   0.0000   0.0000   0.0000   0.0000   0.0000
     0.0000   0.0000   0.0000   0.0000   0.0000   0.0000   0.0000   0.0000
     0.0000   0.0000   0.0000   0.0000   0.0000   0.0000   0.0000   0.0000
     0.0000   0.0000   0.0000   0.0000   0.0000   0.0000   0.0000   0.0000
     0.0000   0.0000   0.0000   0.0000   0.0000   0.0000   0.0000   0.0000
     0.0000   0.0000   0.0000   0.0000   0.0000   0.0000   0.0000   0.0000
     0.0000   0.0000   0.0000   0.0000   0.0000   0.0000   0.0000   0.0000
     0.0000   0.0000   0.0000   0.0000   0.0000   0.0000   0.0000   0.0000
     0.0000   0.0000   0.0000   0.0000   0.0000   0.0000   0.0000   0.0000
     0.0000   0.0000   0.0000   0.0000   0.0000   0.0000   0.0000   0.0000
     0.0000   0.0000   0.0000   0.0000   0.0000   0.0000   0.0000   0.0000
     0.0000   0.0000   0.0000   0.0000   0.0000   0.0000   0.0000   0.0000
     0.0000   0.0000   0.0000   0.0000   0.0000   0.0000   0.0000   0.0000
     0.0000   0.0000   0.0000   0.0000   0.0000   0.0000   0.0000   0.0000
     0.0000   0.0000   0.0000   0.0000   0.0000   0.0000   0.0000   0.0000
     0.0000   0.0000   0.0000   0.0000   0.0000   0.0000   0.0000   0.0000
     0.0000   0.0000   0.0000   0.0000   0.0000   0.0000   0.0000   0.0000
     0.0000   0.0000   0.0000   0.0000   0.0000   0.0000   0.0000   0.0000
     0.0000   0.0000   0.0000   0.0000   0.0000   0.0000   0.0000   0.0000
     0.0000   0.0000   0.0000   0.0000   0.0000   0.0000   0.0000   0.0000
     0.0000   0.0000   0.0000   0.0000   0.0000   0.0000   0.0000   0.0000
     0.0000   0.0000   0.0000   0.0000   0.0000   0.0000   0.0000   0.0000
     0.0000   0.0000   0.0000   0.0000   0.0000   0.0000   0.0000   0.0000
     0.0000   0.0000   0.0000   0.0000   0.0000   0.0000   0.0000   0.0000
     0.0000   0.0000   0.0000   0.0000   0.0000   0.0000   0.0000   0.0000
     0.0000   0.0000   0.0000   0.0000   0.0000   0.0000   0.0000   0.0000
     0.0000   0.0000   0.0000   0.0000   0.0000   0.0000   0.0000   0.0000
     0.0000   0.0000   0.0000   0.0000   0.0000   0.0000   0.0000   0.0000
     0.0000   0.0000   0.0000   0.0000   0.0000   0.0000   0.0000   0.0000
     0.0000   0.0000   0.0000   0.0000   0.0000   0.0000   0.0000   0.0000
     0.0000   0.0000   0.0000   0.0000   0.0000   0.0000   0.0000   0.0000
     0.0000   0.0000   0.0000   0.0000   0.0000   0.0000   0.0000   0.0000
     0.0000   0.0000   0.0000   0.0000   0.0000   0.0000   0.0000   0.0000
     0.0000   0.0000   0.0000   0.0000   0.0000   0.0000   0.0000   0.0000
     0.0000   0.0000   0.0000   0.0000   0.0000   0.0000   0.0000   0.0000
     0.0000   0.0000   0.0000   0.0000   0.0000   0.0000   0.0000   0.0000
     0.0000   0.0000   0.0000   0.0000   0.0000   0.0000   0.0000   0.0000
     0.0000   0.0000   0.0000   0.0000   0.0000   0.0000   0.0000   0.0000
     0.0000   0.0000   0.0000   0.0000   0.0000   0.0000   0.0000   0.0000
     0.0000   0.0000   0.0000   0.0000   0.0000   0.0000   0.0000   0.0000
     0.0000   0.0000   0.0000   0.0000   0.0000   0.0000   0.0000   0.0000
     0.0000   0.0000   0.0000   0.0000   0.0000   0.0000   0.0000   0.0000
     0.0000   0.0000   0.0000   0.0000   0.0000   0.0000   0.0000   0.0000

          k = 0.0000 0.3849 0.0000 ( 59990 PWs)   bands (ev):

   -76.7251 -76.7251 -76.7249 -76.7249 -48.7783 -48.7783 -48.7774 -48.7774
   -47.7527 -47.7527 -47.7509 -47.7509 -47.7482 -47.7482 -47.7481 -47.7481
   -18.2270 -18.2270 -17.6874 -17.6874 -17.6028 -17.6028 -17.4970 -17.4970
   -17.3789 -17.3789 -17.3534 -17.3534  -9.9706  -9.9706  -9.4657  -9.4657
    -9.2594  -9.2594  -9.0937  -9.0937  -8.9534  -8.9534  -8.4170  -8.4169
    -8.2676  -8.2675  -7.9536  -7.9536  -7.8927  -7.8927  -7.6531  -7.6531
    -7.5309  -7.5309  -7.4129  -7.4129  -7.1343  -7.1343  -7.0147  -7.0147
    -6.7989  -6.7989  -6.6070  -6.6070  -6.3275  -6.3274  -5.9675  -5.9675
    -5.1661  -5.1661  -5.0119  -5.0119  -4.9296  -4.9296  -4.8181  -4.8181
    -4.7650  -4.7650  -4.6625  -4.6625  -3.7223  -3.7223  -3.6160  -3.6160
    -3.5824  -3.5824  -3.4714  -3.4714  -0.5543  -0.5543  -0.0612  -0.0612
     0.2831   0.2831   0.4407   0.4407   0.4712   0.4712   0.6895   0.6895
     1.1878   1.1878   1.2393   1.2393   1.3464   1.3464   1.5561   1.5561
     1.7826   1.7826   2.0765   2.0765   2.1668   2.1668   2.3240   2.3240
     2.3785   2.3785   2.6089   2.6089   2.8278   2.8278   2.8402   2.8402
     3.2199   3.2199   3.2518   3.2518   3.2917   3.2917   3.3949   3.3949
     3.5009   3.5009   3.9433   3.9433   3.9932   3.9932   4.0659   4.0660
     4.1559   4.1559   4.4425   4.4425   4.5899   4.5899   4.8379   4.8379
     5.3869   5.3869   5.5563   5.5563   5.6919   5.6919   5.7383   5.7383
     5.7969   5.7969   6.2740   6.2740   6.2971   6.2971   6.4529   6.4529
     6.6998   6.6998   6.7274   6.7274   6.8061   6.8061   6.8553   6.8553
     7.1980   7.1980   7.4500   7.4500   7.9087   7.9087   8.0510   8.0510
     8.1330   8.1331   8.1784   8.1784   8.3423   8.3423   8.3870   8.3870
     8.5466   8.5466   8.6268   8.6268   8.6615   8.6615   8.8798   8.8798
     8.9661   8.9661   9.0202   9.0202   9.0545   9.0545   9.2916   9.2916
     9.3032   9.3032   9.4497   9.4497   9.4955   9.4955   9.7523   9.7523
     9.8606   9.8606   9.8916   9.8916   9.9979   9.9979  10.1973  10.1973
    10.2726  10.2726  10.3150  10.3150  10.5191  10.5191  10.6247  10.6247
    10.8136  10.8136  10.9031  10.9031  10.9804  10.9804  11.0526  11.0526
    11.0966  11.0966  11.1928  11.1928  11.2168  11.2168  11.4521  11.4521
    11.5354  11.5354  11.5803  11.5803  11.8472  11.8472  11.9657  11.9657
    11.9755  11.9755  12.0504  12.0504  12.1791  12.1791  12.2166  12.2166
    12.4707  12.4707  12.4857  12.4857  12.6791  12.6791  12.7841  12.7841
    12.9144  12.9144  13.0200  13.0200  13.1520  13.1520  13.3698  13.3698
    13.4361  13.4361  13.4494  13.4494  13.4896  13.4896  13.6684  13.6684
    13.9439  13.9439  14.0460  14.0460  14.0810  14.0810  14.2247  14.2247
    14.3173  14.3173  14.4032  14.4032  14.4494  14.4494  14.6850  14.6850
    14.8034  14.8034  14.9364  14.9364  15.0286  15.0286  15.0510  15.0510
    15.0789  15.0789  15.1075  15.1075  15.2514  15.2514  15.3157  15.3157
    15.4048  15.4048  15.5286  15.5286  15.6453  15.6453  15.9004  15.9004
    15.9139  15.9139  15.9698  15.9698  16.2899  16.2899  16.3435  16.3435
    16.4125  16.4125  16.6329  16.6329  16.6759  16.6759  16.6949  16.6949
    16.7912  16.7912  16.8077  16.8077  16.9655  16.9655  16.9988  16.9988
    17.0497  17.0497  17.1459  17.1459  17.1880  17.1880  17.2026  17.2026
    17.3845  17.3845  17.4248  17.4248  17.5540  17.5540  17.6151  17.6151
    17.7217  17.7217  17.7583  17.7583  17.9775  17.9775  17.9928  17.9928
    18.0742  18.0742  18.1321  18.1321  18.2745  18.2745  18.2973  18.2974
    18.4405  18.4405  18.6538  18.6538  18.6752  18.6752  18.8298  18.8298
    18.8955  18.8955  18.9149  18.9149  19.0362  19.0362  19.0665  19.0665
    19.1072  19.1072  19.1948  19.1948  19.2901  19.2901  19.4011  19.4011
    19.4646  19.4646  19.4856  19.4856  19.5775  19.5775  19.6331  19.6331
    19.7038  19.7038  19.7639  19.7639  19.9837  19.9837  20.0606  20.0606
    20.0804  20.0804  20.3469  20.3469  20.3903  20.3903  20.4547  20.4547
    20.4612  20.4612  20.5972  20.5972  20.7675  20.7675  20.8276  20.8276
    20.9397  20.9397  20.9620  20.9620  21.0872  21.0872  21.1432  21.1432
    21.2613  21.2613  21.3425  21.3425  21.3662  21.3662  21.4530  21.4530
    21.4898  21.4898  21.5012  21.5012  21.6409  21.6409  21.6921  21.6921
    21.7741  21.7741  21.8247  21.8247  21.9051  21.9051  22.0916  22.0916
    22.1215  22.1215  22.3650  22.3650  22.3998  22.3998  22.4596  22.4596
    22.4815  22.4815  22.6077  22.6077  22.6923  22.6923  22.7627  22.7627
    22.8198  22.8198  22.8295  22.8295  22.9614  22.9614  23.0605  23.0605
    23.1971  23.1971  23.2607  23.2607  23.3018  23.3018  23.3611  23.3611
    23.4524  23.4524  23.5427  23.5427  23.6255  23.6255  23.6674  23.6674
    23.7001  23.7001  23.7297  23.7297  23.8272  23.8272  24.0842  24.0842
    24.1452  24.1452  24.1653  24.1653  24.2652  24.2652  24.2870  24.2870
    24.4146  24.4146  24.4631  24.4631  24.4771  24.4771  24.5455  24.5455
    24.5725  24.5725  24.6663  24.6663  24.7374  24.7374  24.7538  24.7538
    24.7818  24.7818  24.8617  24.8617  24.9840  24.9840  25.0541  25.0541
    25.1360  25.1360  25.1807  25.1807  25.2246  25.2246  25.3631  25.3631
    25.4939  25.4939  25.6874  25.6874  25.6926  25.6926  25.7389  25.7389
    25.8291  25.8291  25.8420  25.8420  25.9519  25.9519  26.0276  26.0276
    26.1465  26.1465  26.3344  26.3344  26.3706  26.3706  26.4516  26.4516
    26.5426  26.5426  26.5798  26.5798  26.6063  26.6063  26.8332  26.8332
    26.8586  26.8586  26.9596  26.9596  27.0390  27.0390  27.1620  27.1620
    27.2292  27.2292  27.3336  27.3336  27.3745  27.3745  27.4687  27.4687
    27.4941  27.4941  27.5093  27.5093  27.6906  27.6906  27.7215  27.7215
    27.8216  27.8216  27.9749  27.9749  28.1356  28.1356  28.1684  28.1684
    28.2435  28.2435  28.3094  28.3094  28.3743  28.3743  28.3784  28.3784
    28.5077  28.5077  28.5222  28.5222  28.5826  28.5826  28.6888  28.6888
    28.7143  28.7143  28.7997  28.7997  28.8347  28.8347  28.8465  28.8465
    28.9191  28.9191  28.9717  28.9717  29.0283  29.0283  29.1473  29.1473
    29.2189  29.2189  29.3041  29.3041  29.4143  29.4143  29.5004  29.5004
    29.5242  29.5243  29.5512  29.5512  29.6019  29.6019  29.6931  29.6931
    29.7161  29.7161  29.7587  29.7587  29.8023  29.8023  29.9874  29.9874
    30.0717  30.0717  30.0848  30.0848  30.1086  30.1086  30.1827  30.1827
    30.3002  30.3002  30.3098  30.3098  30.3455  30.3455  30.4092  30.4092
    30.4411  30.4411  30.5188  30.5188  30.5721  30.5721  30.5872  30.5872
    30.7479  30.7479  30.7769  30.7769  30.8493  30.8493  30.9027  30.9027
    30.9302  30.9302  31.0225  31.0225  31.1611  31.1611  31.1660  31.1660
    31.2123  31.2123  31.2507  31.2507  31.3200  31.3200  31.3543  31.3543
    31.4678  31.4678  31.5490  31.5490  31.6135  31.6136  31.7031  31.7031
    31.8774  31.8774  31.9220  31.9220  31.9763  31.9763  32.1109  32.1109
    32.1822  32.1822  32.2185  32.2185  32.2338  32.2338  32.2713  32.2713
    32.3940  32.3940  32.4418  32.4418  32.4696  32.4696  32.6170  32.6170
    32.6370  32.6370  32.6729  32.6729  32.7919  32.7919  32.9557  32.9557
    32.9612  32.9612  33.0733  33.0733  33.1756  33.1756  33.2547  33.2547
    33.2984  33.2984  33.3306  33.3306  33.4605  33.4605  33.4937  33.4937
    33.5506  33.5506  33.6251  33.6251  33.6738  33.6738  33.7865  33.7865
    33.8612  33.8612  33.9194  33.9194  34.0142  34.0142  34.0316  34.0316
    34.1216  34.1216  34.2036  34.2036  34.3350  34.3350  34.3544  34.3544

     occupation numbers 
     1.0000   1.0000   1.0000   1.0000   1.0000   1.0000   1.0000   1.0000
     1.0000   1.0000   1.0000   1.0000   1.0000   1.0000   1.0000   1.0000
     1.0000   1.0000   1.0000   1.0000   1.0000   1.0000   1.0000   1.0000
     1.0000   1.0000   1.0000   1.0000   1.0000   1.0000   1.0000   1.0000
     1.0000   1.0000   1.0000   1.0000   1.0000   1.0000   1.0000   1.0000
     1.0000   1.0000   1.0000   1.0000   1.0000   1.0000   1.0000   1.0000
     1.0000   1.0000   1.0000   1.0000   1.0000   1.0000   1.0000   1.0000
     1.0000   1.0000   1.0000   1.0000   1.0000   1.0000   1.0000   1.0000
     1.0000   1.0000   1.0000   1.0000   1.0000   1.0000   0.0000   0.0000
     0.0000   0.0000   0.0000   0.0000   0.0000   0.0000   0.0000   0.0000
     0.0000   0.0000   0.0000   0.0000   0.0000   0.0000   0.0000   0.0000
     0.0000   0.0000   0.0000   0.0000   0.0000   0.0000   0.0000   0.0000
     0.0000   0.0000   0.0000   0.0000   0.0000   0.0000   0.0000   0.0000
     0.0000   0.0000   0.0000   0.0000   0.0000   0.0000   0.0000   0.0000
     0.0000   0.0000   0.0000   0.0000   0.0000   0.0000   0.0000   0.0000
     0.0000   0.0000   0.0000   0.0000   0.0000   0.0000   0.0000   0.0000
     0.0000   0.0000   0.0000   0.0000   0.0000   0.0000   0.0000   0.0000
     0.0000   0.0000   0.0000   0.0000   0.0000   0.0000   0.0000   0.0000
     0.0000   0.0000   0.0000   0.0000   0.0000   0.0000   0.0000   0.0000
     0.0000   0.0000   0.0000   0.0000   0.0000   0.0000   0.0000   0.0000
     0.0000   0.0000   0.0000   0.0000   0.0000   0.0000   0.0000   0.0000
     0.0000   0.0000   0.0000   0.0000   0.0000   0.0000   0.0000   0.0000
     0.0000   0.0000   0.0000   0.0000   0.0000   0.0000   0.0000   0.0000
     0.0000   0.0000   0.0000   0.0000   0.0000   0.0000   0.0000   0.0000
     0.0000   0.0000   0.0000   0.0000   0.0000   0.0000   0.0000   0.0000
     0.0000   0.0000   0.0000   0.0000   0.0000   0.0000   0.0000   0.0000
     0.0000   0.0000   0.0000   0.0000   0.0000   0.0000   0.0000   0.0000
     0.0000   0.0000   0.0000   0.0000   0.0000   0.0000   0.0000   0.0000
     0.0000   0.0000   0.0000   0.0000   0.0000   0.0000   0.0000   0.0000
     0.0000   0.0000   0.0000   0.0000   0.0000   0.0000   0.0000   0.0000
     0.0000   0.0000   0.0000   0.0000   0.0000   0.0000   0.0000   0.0000
     0.0000   0.0000   0.0000   0.0000   0.0000   0.0000   0.0000   0.0000
     0.0000   0.0000   0.0000   0.0000   0.0000   0.0000   0.0000   0.0000
     0.0000   0.0000   0.0000   0.0000   0.0000   0.0000   0.0000   0.0000
     0.0000   0.0000   0.0000   0.0000   0.0000   0.0000   0.0000   0.0000
     0.0000   0.0000   0.0000   0.0000   0.0000   0.0000   0.0000   0.0000
     0.0000   0.0000   0.0000   0.0000   0.0000   0.0000   0.0000   0.0000
     0.0000   0.0000   0.0000   0.0000   0.0000   0.0000   0.0000   0.0000
     0.0000   0.0000   0.0000   0.0000   0.0000   0.0000   0.0000   0.0000
     0.0000   0.0000   0.0000   0.0000   0.0000   0.0000   0.0000   0.0000
     0.0000   0.0000   0.0000   0.0000   0.0000   0.0000   0.0000   0.0000
     0.0000   0.0000   0.0000   0.0000   0.0000   0.0000   0.0000   0.0000
     0.0000   0.0000   0.0000   0.0000   0.0000   0.0000   0.0000   0.0000
     0.0000   0.0000   0.0000   0.0000   0.0000   0.0000   0.0000   0.0000
     0.0000   0.0000   0.0000   0.0000   0.0000   0.0000   0.0000   0.0000
     0.0000   0.0000   0.0000   0.0000   0.0000   0.0000   0.0000   0.0000
     0.0000   0.0000   0.0000   0.0000   0.0000   0.0000   0.0000   0.0000
     0.0000   0.0000   0.0000   0.0000   0.0000   0.0000   0.0000   0.0000
     0.0000   0.0000   0.0000   0.0000   0.0000   0.0000   0.0000   0.0000
     0.0000   0.0000   0.0000   0.0000   0.0000   0.0000   0.0000   0.0000
     0.0000   0.0000   0.0000   0.0000   0.0000   0.0000   0.0000   0.0000
     0.0000   0.0000   0.0000   0.0000   0.0000   0.0000   0.0000   0.0000
     0.0000   0.0000   0.0000   0.0000   0.0000   0.0000   0.0000   0.0000
     0.0000   0.0000   0.0000   0.0000   0.0000   0.0000   0.0000   0.0000
     0.0000   0.0000   0.0000   0.0000   0.0000   0.0000   0.0000   0.0000
     0.0000   0.0000   0.0000   0.0000   0.0000   0.0000   0.0000   0.0000
     0.0000   0.0000   0.0000   0.0000   0.0000   0.0000   0.0000   0.0000
     0.0000   0.0000   0.0000   0.0000   0.0000   0.0000   0.0000   0.0000
     0.0000   0.0000   0.0000   0.0000   0.0000   0.0000   0.0000   0.0000
     0.0000   0.0000   0.0000   0.0000   0.0000   0.0000   0.0000   0.0000
     0.0000   0.0000   0.0000   0.0000   0.0000   0.0000   0.0000   0.0000
     0.0000   0.0000   0.0000   0.0000   0.0000   0.0000   0.0000   0.0000
     0.0000   0.0000   0.0000   0.0000   0.0000   0.0000   0.0000   0.0000
     0.0000   0.0000   0.0000   0.0000   0.0000   0.0000   0.0000   0.0000
     0.0000   0.0000   0.0000   0.0000   0.0000   0.0000   0.0000   0.0000
     0.0000   0.0000   0.0000   0.0000   0.0000   0.0000   0.0000   0.0000
     0.0000   0.0000   0.0000   0.0000   0.0000   0.0000   0.0000   0.0000
     0.0000   0.0000   0.0000   0.0000   0.0000   0.0000   0.0000   0.0000
     0.0000   0.0000   0.0000   0.0000   0.0000   0.0000   0.0000   0.0000
     0.0000   0.0000   0.0000   0.0000   0.0000   0.0000   0.0000   0.0000
     0.0000   0.0000   0.0000   0.0000   0.0000   0.0000   0.0000   0.0000
     0.0000   0.0000   0.0000   0.0000   0.0000   0.0000   0.0000   0.0000
     0.0000   0.0000   0.0000   0.0000   0.0000   0.0000   0.0000   0.0000
     0.0000   0.0000   0.0000   0.0000   0.0000   0.0000   0.0000   0.0000
     0.0000   0.0000   0.0000   0.0000   0.0000   0.0000   0.0000   0.0000
     0.0000   0.0000   0.0000   0.0000   0.0000   0.0000   0.0000   0.0000
     0.0000   0.0000   0.0000   0.0000   0.0000   0.0000   0.0000   0.0000
     0.0000   0.0000   0.0000   0.0000   0.0000   0.0000   0.0000   0.0000
     0.0000   0.0000   0.0000   0.0000   0.0000   0.0000   0.0000   0.0000
     0.0000   0.0000   0.0000   0.0000   0.0000   0.0000   0.0000   0.0000
     0.0000   0.0000   0.0000   0.0000   0.0000   0.0000   0.0000   0.0000
     0.0000   0.0000   0.0000   0.0000   0.0000   0.0000   0.0000   0.0000
     0.0000   0.0000   0.0000   0.0000   0.0000   0.0000   0.0000   0.0000
     0.0000   0.0000   0.0000   0.0000   0.0000   0.0000   0.0000   0.0000
     0.0000   0.0000   0.0000   0.0000   0.0000   0.0000   0.0000   0.0000
     0.0000   0.0000   0.0000   0.0000   0.0000   0.0000   0.0000   0.0000
     0.0000   0.0000   0.0000   0.0000   0.0000   0.0000   0.0000   0.0000
     0.0000   0.0000   0.0000   0.0000   0.0000   0.0000   0.0000   0.0000
     0.0000   0.0000   0.0000   0.0000   0.0000   0.0000   0.0000   0.0000
     0.0000   0.0000   0.0000   0.0000   0.0000   0.0000   0.0000   0.0000
     0.0000   0.0000   0.0000   0.0000   0.0000   0.0000   0.0000   0.0000
     0.0000   0.0000   0.0000   0.0000   0.0000   0.0000   0.0000   0.0000
     0.0000   0.0000   0.0000   0.0000   0.0000   0.0000   0.0000   0.0000
     0.0000   0.0000   0.0000   0.0000   0.0000   0.0000   0.0000   0.0000
     0.0000   0.0000   0.0000   0.0000   0.0000   0.0000   0.0000   0.0000
     0.0000   0.0000   0.0000   0.0000   0.0000   0.0000   0.0000   0.0000
     0.0000   0.0000   0.0000   0.0000   0.0000   0.0000   0.0000   0.0000
     0.0000   0.0000   0.0000   0.0000   0.0000   0.0000   0.0000   0.0000
     0.0000   0.0000   0.0000   0.0000   0.0000   0.0000   0.0000   0.0000
     0.0000   0.0000   0.0000   0.0000   0.0000   0.0000   0.0000   0.0000

          k = 0.0000-0.5774 0.0000 ( 59826 PWs)   bands (ev):

   -76.7250 -76.7250 -76.7249 -76.7249 -48.7781 -48.7781 -48.7776 -48.7776
   -47.7523 -47.7523 -47.7513 -47.7513 -47.7482 -47.7482 -47.7480 -47.7480
   -18.0710 -18.0710 -17.8590 -17.8590 -17.5180 -17.5180 -17.5144 -17.5144
   -17.4511 -17.4511 -17.3651 -17.3651  -9.9846  -9.9846  -9.3830  -9.3830
    -9.2891  -9.2891  -8.9001  -8.9001  -8.8888  -8.8888  -8.4822  -8.4822
    -8.2661  -8.2661  -8.0430  -8.0430  -7.8054  -7.8054  -7.7996  -7.7996
    -7.4584  -7.4584  -7.4311  -7.4311  -7.2282  -7.2282  -6.8629  -6.8629
    -6.7840  -6.7840  -6.5965  -6.5965  -6.3852  -6.3852  -5.9752  -5.9752
    -5.2160  -5.2160  -5.0732  -5.0732  -4.9469  -4.9469  -4.8151  -4.8151
    -4.7452  -4.7452  -4.6440  -4.6440  -3.7017  -3.7017  -3.6170  -3.6170
    -3.6035  -3.6035  -3.4397  -3.4397  -0.7989  -0.7989   0.1845   0.1845
     0.3208   0.3208   0.5151   0.5151   0.5152   0.5152   0.5825   0.5825
     0.6630   0.6630   1.0403   1.0403   1.1090   1.1090   1.5860   1.5860
     1.7739   1.7739   1.9503   1.9503   2.5030   2.5030   2.5612   2.5612
     2.6159   2.6159   2.6527   2.6527   2.7100   2.7100   2.7122   2.7122
     2.8035   2.8035   3.0384   3.0384   3.0508   3.0508   3.2915   3.2915
     3.3079   3.3079   3.7541   3.7541   3.8075   3.8075   4.2057   4.2057
     4.3947   4.3947   4.8152   4.8152   5.0464   5.0464   5.1289   5.1289
     5.3287   5.3287   5.8510   5.8510   5.9034   5.9034   6.0334   6.0334
     6.1351   6.1351   6.1516   6.1516   6.4055   6.4055   6.5372   6.5372
     6.6462   6.6462   6.9658   6.9658   6.9905   6.9905   7.4879   7.4879
     7.5618   7.5618   7.6016   7.6016   7.6205   7.6205   7.9326   7.9326
     7.9417   7.9417   7.9502   7.9502   8.1961   8.1961   8.2596   8.2596
     8.3454   8.3454   8.5710   8.5710   8.7584   8.7584   8.8349   8.8349
     8.9356   8.9356   9.1005   9.1005   9.2248   9.2248   9.4140   9.4140
     9.4198   9.4198   9.5246   9.5246   9.5609   9.5609   9.6125   9.6125
     9.9170   9.9170   9.9642   9.9642  10.0205  10.0205  10.2230  10.2230
    10.2708  10.2708  10.3248  10.3248  10.5534  10.5534  10.6277  10.6277
    10.7164  10.7164  10.7284  10.7284  10.9457  10.9457  11.0137  11.0137
    11.2223  11.2223  11.2597  11.2597  11.2685  11.2685  11.3562  11.3562
    11.5232  11.5232  11.5962  11.5962  11.6802  11.6802  11.7262  11.7262
    11.7328  11.7328  11.8078  11.8078  11.8336  11.8336  12.0972  12.0972
    12.1889  12.1889  12.4365  12.4365  12.8023  12.8023  12.8156  12.8156
    12.9115  12.9115  12.9553  12.9553  13.1267  13.1267  13.2032  13.2032
    13.4474  13.4474  13.7118  13.7118  13.8596  13.8596  13.9257  13.9257
    13.9609  13.9609  14.1065  14.1065  14.1535  14.1535  14.2220  14.2220
    14.2556  14.2556  14.3997  14.3997  14.4234  14.4234  14.4308  14.4308
    14.4666  14.4666  14.6953  14.6953  15.0123  15.0123  15.0461  15.0461
    15.0681  15.0681  15.0737  15.0737  15.3161  15.3161  15.3883  15.3883
    15.4248  15.4248  15.4997  15.4997  15.5965  15.5965  15.6609  15.6609
    15.6766  15.6766  15.8782  15.8782  15.8821  15.8821  16.2044  16.2044
    16.2171  16.2171  16.2982  16.2982  16.4185  16.4185  16.5339  16.5339
    16.5479  16.5479  16.6161  16.6161  16.8088  16.8088  16.8476  16.8476
    17.0041  17.0041  17.0794  17.0794  17.1142  17.1142  17.4668  17.4668
    17.4950  17.4950  17.5841  17.5841  17.6568  17.6568  17.6711  17.6711
    17.7574  17.7574  17.7912  17.7912  18.0170  18.0170  18.0981  18.0981
    18.1333  18.1333  18.2016  18.2016  18.3869  18.3869  18.4182  18.4182
    18.4858  18.4858  18.5864  18.5864  18.7198  18.7198  18.8785  18.8785
    19.0791  19.0791  19.0823  19.0823  19.0938  19.0938  19.1142  19.1142
    19.1914  19.1914  19.2524  19.2524  19.4061  19.4061  19.5328  19.5328
    19.5651  19.5651  19.5953  19.5953  19.7345  19.7345  19.7798  19.7798
    19.8708  19.8708  19.8864  19.8864  20.0275  20.0275  20.0414  20.0414
    20.0431  20.0431  20.1478  20.1478  20.2119  20.2119  20.3215  20.3215
    20.3506  20.3506  20.4223  20.4223  20.7737  20.7737  20.8307  20.8307
    20.8385  20.8385  20.8789  20.8789  20.9097  20.9097  21.1880  21.1880
    21.2497  21.2497  21.2540  21.2540  21.5255  21.5255  21.5964  21.5964
    21.6399  21.6399  21.7387  21.7387  21.8514  21.8514  21.9067  21.9067
    21.9234  21.9234  21.9864  21.9864  22.1023  22.1023  22.1499  22.1499
    22.2136  22.2136  22.2153  22.2153  22.2377  22.2377  22.3027  22.3027
    22.4010  22.4010  22.4605  22.4605  22.5400  22.5400  22.5437  22.5437
    22.7189  22.7189  22.8760  22.8760  22.8767  22.8767  22.9059  22.9059
    22.9578  22.9578  23.0405  23.0405  23.1246  23.1246  23.1711  23.1711
    23.2310  23.2310  23.4250  23.4250  23.4820  23.4820  23.5099  23.5099
    23.6056  23.6056  23.6531  23.6531  23.7491  23.7491  23.8933  23.8933
    23.9242  23.9242  23.9358  23.9358  24.1762  24.1762  24.2072  24.2072
    24.2853  24.2853  24.4051  24.4051  24.5254  24.5254  24.6379  24.6379
    24.7399  24.7399  24.8441  24.8441  24.9773  24.9773  25.0340  25.0340
    25.3114  25.3114  25.4053  25.4053  25.4136  25.4136  25.4626  25.4626
    25.5069  25.5069  25.5331  25.5331  25.5512  25.5512  25.7319  25.7319
    25.8113  25.8113  26.0556  26.0556  26.1204  26.1204  26.1922  26.1922
    26.2072  26.2072  26.3283  26.3283  26.3571  26.3571  26.3920  26.3920
    26.4121  26.4121  26.5643  26.5643  26.6407  26.6407  26.6614  26.6614
    26.7814  26.7814  26.7864  26.7864  26.7884  26.7884  26.8291  26.8291
    26.9238  26.9238  26.9648  26.9648  27.0431  27.0431  27.2682  27.2682
    27.3909  27.3909  27.4623  27.4623  27.5305  27.5305  27.5537  27.5537
    27.5860  27.5860  27.6014  27.6014  27.7114  27.7114  27.8395  27.8395
    27.9067  27.9067  28.0037  28.0037  28.0039  28.0039  28.0541  28.0541
    28.1027  28.1027  28.1555  28.1555  28.2096  28.2096  28.2819  28.2819
    28.3128  28.3128  28.3609  28.3609  28.4299  28.4299  28.4506  28.4506
    28.6075  28.6075  28.6227  28.6227  28.6320  28.6320  28.6714  28.6714
    28.7704  28.7704  28.8695  28.8695  28.9411  28.9411  28.9582  28.9582
    29.0458  29.0458  29.1366  29.1366  29.2605  29.2605  29.3046  29.3046
    29.3047  29.3047  29.3242  29.3242  29.6132  29.6132  29.7219  29.7219
    29.7375  29.7375  29.7949  29.7949  29.8151  29.8151  29.8725  29.8725
    29.9054  29.9054  29.9344  29.9344  30.0168  30.0168  30.0492  30.0492
    30.1053  30.1053  30.1469  30.1469  30.1708  30.1708  30.3140  30.3140
    30.3706  30.3706  30.3736  30.3736  30.4309  30.4309  30.4875  30.4875
    30.5089  30.5089  30.5822  30.5822  30.5940  30.5940  30.6124  30.6124
    30.6693  30.6693  30.7383  30.7383  30.8571  30.8571  30.9985  30.9985
    31.1123  31.1123  31.1407  31.1407  31.4067  31.4067  31.6422  31.6422
    31.6635  31.6635  31.7216  31.7216  31.7275  31.7275  31.8095  31.8095
    31.8330  31.8330  31.8428  31.8428  31.9068  31.9068  31.9113  31.9113
    32.0834  32.0834  32.0905  32.0905  32.2062  32.2062  32.2355  32.2355
    32.3900  32.3900  32.4416  32.4416  32.4502  32.4502  32.4629  32.4629
    32.7628  32.7628  32.7856  32.7856  32.8788  32.8788  32.9167  32.9167
    32.9356  32.9356  32.9860  32.9860  33.0720  33.0720  33.1576  33.1576
    33.1623  33.1623  33.3762  33.3762  33.4479  33.4479  33.4523  33.4523
    33.5172  33.5172  33.5710  33.5710  33.6251  33.6251  33.6267  33.6267
    33.7573  33.7573  33.8764  33.8764  34.0644  34.0644  34.0664  34.0664
    34.1397  34.1397  34.3360  34.3360  34.3591  34.3591  34.4075  34.4075

     occupation numbers 
     1.0000   1.0000   1.0000   1.0000   1.0000   1.0000   1.0000   1.0000
     1.0000   1.0000   1.0000   1.0000   1.0000   1.0000   1.0000   1.0000
     1.0000   1.0000   1.0000   1.0000   1.0000   1.0000   1.0000   1.0000
     1.0000   1.0000   1.0000   1.0000   1.0000   1.0000   1.0000   1.0000
     1.0000   1.0000   1.0000   1.0000   1.0000   1.0000   1.0000   1.0000
     1.0000   1.0000   1.0000   1.0000   1.0000   1.0000   1.0000   1.0000
     1.0000   1.0000   1.0000   1.0000   1.0000   1.0000   1.0000   1.0000
     1.0000   1.0000   1.0000   1.0000   1.0000   1.0000   1.0000   1.0000
     1.0000   1.0000   1.0000   1.0000   1.0000   1.0000   0.0000   0.0000
     0.0000   0.0000   0.0000   0.0000   0.0000   0.0000   0.0000   0.0000
     0.0000   0.0000   0.0000   0.0000   0.0000   0.0000   0.0000   0.0000
     0.0000   0.0000   0.0000   0.0000   0.0000   0.0000   0.0000   0.0000
     0.0000   0.0000   0.0000   0.0000   0.0000   0.0000   0.0000   0.0000
     0.0000   0.0000   0.0000   0.0000   0.0000   0.0000   0.0000   0.0000
     0.0000   0.0000   0.0000   0.0000   0.0000   0.0000   0.0000   0.0000
     0.0000   0.0000   0.0000   0.0000   0.0000   0.0000   0.0000   0.0000
     0.0000   0.0000   0.0000   0.0000   0.0000   0.0000   0.0000   0.0000
     0.0000   0.0000   0.0000   0.0000   0.0000   0.0000   0.0000   0.0000
     0.0000   0.0000   0.0000   0.0000   0.0000   0.0000   0.0000   0.0000
     0.0000   0.0000   0.0000   0.0000   0.0000   0.0000   0.0000   0.0000
     0.0000   0.0000   0.0000   0.0000   0.0000   0.0000   0.0000   0.0000
     0.0000   0.0000   0.0000   0.0000   0.0000   0.0000   0.0000   0.0000
     0.0000   0.0000   0.0000   0.0000   0.0000   0.0000   0.0000   0.0000
     0.0000   0.0000   0.0000   0.0000   0.0000   0.0000   0.0000   0.0000
     0.0000   0.0000   0.0000   0.0000   0.0000   0.0000   0.0000   0.0000
     0.0000   0.0000   0.0000   0.0000   0.0000   0.0000   0.0000   0.0000
     0.0000   0.0000   0.0000   0.0000   0.0000   0.0000   0.0000   0.0000
     0.0000   0.0000   0.0000   0.0000   0.0000   0.0000   0.0000   0.0000
     0.0000   0.0000   0.0000   0.0000   0.0000   0.0000   0.0000   0.0000
     0.0000   0.0000   0.0000   0.0000   0.0000   0.0000   0.0000   0.0000
     0.0000   0.0000   0.0000   0.0000   0.0000   0.0000   0.0000   0.0000
     0.0000   0.0000   0.0000   0.0000   0.0000   0.0000   0.0000   0.0000
     0.0000   0.0000   0.0000   0.0000   0.0000   0.0000   0.0000   0.0000
     0.0000   0.0000   0.0000   0.0000   0.0000   0.0000   0.0000   0.0000
     0.0000   0.0000   0.0000   0.0000   0.0000   0.0000   0.0000   0.0000
     0.0000   0.0000   0.0000   0.0000   0.0000   0.0000   0.0000   0.0000
     0.0000   0.0000   0.0000   0.0000   0.0000   0.0000   0.0000   0.0000
     0.0000   0.0000   0.0000   0.0000   0.0000   0.0000   0.0000   0.0000
     0.0000   0.0000   0.0000   0.0000   0.0000   0.0000   0.0000   0.0000
     0.0000   0.0000   0.0000   0.0000   0.0000   0.0000   0.0000   0.0000
     0.0000   0.0000   0.0000   0.0000   0.0000   0.0000   0.0000   0.0000
     0.0000   0.0000   0.0000   0.0000   0.0000   0.0000   0.0000   0.0000
     0.0000   0.0000   0.0000   0.0000   0.0000   0.0000   0.0000   0.0000
     0.0000   0.0000   0.0000   0.0000   0.0000   0.0000   0.0000   0.0000
     0.0000   0.0000   0.0000   0.0000   0.0000   0.0000   0.0000   0.0000
     0.0000   0.0000   0.0000   0.0000   0.0000   0.0000   0.0000   0.0000
     0.0000   0.0000   0.0000   0.0000   0.0000   0.0000   0.0000   0.0000
     0.0000   0.0000   0.0000   0.0000   0.0000   0.0000   0.0000   0.0000
     0.0000   0.0000   0.0000   0.0000   0.0000   0.0000   0.0000   0.0000
     0.0000   0.0000   0.0000   0.0000   0.0000   0.0000   0.0000   0.0000
     0.0000   0.0000   0.0000   0.0000   0.0000   0.0000   0.0000   0.0000
     0.0000   0.0000   0.0000   0.0000   0.0000   0.0000   0.0000   0.0000
     0.0000   0.0000   0.0000   0.0000   0.0000   0.0000   0.0000   0.0000
     0.0000   0.0000   0.0000   0.0000   0.0000   0.0000   0.0000   0.0000
     0.0000   0.0000   0.0000   0.0000   0.0000   0.0000   0.0000   0.0000
     0.0000   0.0000   0.0000   0.0000   0.0000   0.0000   0.0000   0.0000
     0.0000   0.0000   0.0000   0.0000   0.0000   0.0000   0.0000   0.0000
     0.0000   0.0000   0.0000   0.0000   0.0000   0.0000   0.0000   0.0000
     0.0000   0.0000   0.0000   0.0000   0.0000   0.0000   0.0000   0.0000
     0.0000   0.0000   0.0000   0.0000   0.0000   0.0000   0.0000   0.0000
     0.0000   0.0000   0.0000   0.0000   0.0000   0.0000   0.0000   0.0000
     0.0000   0.0000   0.0000   0.0000   0.0000   0.0000   0.0000   0.0000
     0.0000   0.0000   0.0000   0.0000   0.0000   0.0000   0.0000   0.0000
     0.0000   0.0000   0.0000   0.0000   0.0000   0.0000   0.0000   0.0000
     0.0000   0.0000   0.0000   0.0000   0.0000   0.0000   0.0000   0.0000
     0.0000   0.0000   0.0000   0.0000   0.0000   0.0000   0.0000   0.0000
     0.0000   0.0000   0.0000   0.0000   0.0000   0.0000   0.0000   0.0000
     0.0000   0.0000   0.0000   0.0000   0.0000   0.0000   0.0000   0.0000
     0.0000   0.0000   0.0000   0.0000   0.0000   0.0000   0.0000   0.0000
     0.0000   0.0000   0.0000   0.0000   0.0000   0.0000   0.0000   0.0000
     0.0000   0.0000   0.0000   0.0000   0.0000   0.0000   0.0000   0.0000
     0.0000   0.0000   0.0000   0.0000   0.0000   0.0000   0.0000   0.0000
     0.0000   0.0000   0.0000   0.0000   0.0000   0.0000   0.0000   0.0000
     0.0000   0.0000   0.0000   0.0000   0.0000   0.0000   0.0000   0.0000
     0.0000   0.0000   0.0000   0.0000   0.0000   0.0000   0.0000   0.0000
     0.0000   0.0000   0.0000   0.0000   0.0000   0.0000   0.0000   0.0000
     0.0000   0.0000   0.0000   0.0000   0.0000   0.0000   0.0000   0.0000
     0.0000   0.0000   0.0000   0.0000   0.0000   0.0000   0.0000   0.0000
     0.0000   0.0000   0.0000   0.0000   0.0000   0.0000   0.0000   0.0000
     0.0000   0.0000   0.0000   0.0000   0.0000   0.0000   0.0000   0.0000
     0.0000   0.0000   0.0000   0.0000   0.0000   0.0000   0.0000   0.0000
     0.0000   0.0000   0.0000   0.0000   0.0000   0.0000   0.0000   0.0000
     0.0000   0.0000   0.0000   0.0000   0.0000   0.0000   0.0000   0.0000
     0.0000   0.0000   0.0000   0.0000   0.0000   0.0000   0.0000   0.0000
     0.0000   0.0000   0.0000   0.0000   0.0000   0.0000   0.0000   0.0000
     0.0000   0.0000   0.0000   0.0000   0.0000   0.0000   0.0000   0.0000
     0.0000   0.0000   0.0000   0.0000   0.0000   0.0000   0.0000   0.0000
     0.0000   0.0000   0.0000   0.0000   0.0000   0.0000   0.0000   0.0000
     0.0000   0.0000   0.0000   0.0000   0.0000   0.0000   0.0000   0.0000
     0.0000   0.0000   0.0000   0.0000   0.0000   0.0000   0.0000   0.0000
     0.0000   0.0000   0.0000   0.0000   0.0000   0.0000   0.0000   0.0000
     0.0000   0.0000   0.0000   0.0000   0.0000   0.0000   0.0000   0.0000
     0.0000   0.0000   0.0000   0.0000   0.0000   0.0000   0.0000   0.0000
     0.0000   0.0000   0.0000   0.0000   0.0000   0.0000   0.0000   0.0000
     0.0000   0.0000   0.0000   0.0000   0.0000   0.0000   0.0000   0.0000
     0.0000   0.0000   0.0000   0.0000   0.0000   0.0000   0.0000   0.0000
     0.0000   0.0000   0.0000   0.0000   0.0000   0.0000   0.0000   0.0000
     0.0000   0.0000   0.0000   0.0000   0.0000   0.0000   0.0000   0.0000
     0.0000   0.0000   0.0000   0.0000   0.0000   0.0000   0.0000   0.0000
     0.0000   0.0000   0.0000   0.0000   0.0000   0.0000   0.0000   0.0000

          k = 0.1667 0.2887 0.0000 ( 59929 PWs)   bands (ev):

   -76.7251 -76.7251 -76.7249 -76.7249 -48.7783 -48.7783 -48.7773 -48.7773
   -47.7528 -47.7528 -47.7508 -47.7508 -47.7483 -47.7483 -47.7481 -47.7480
   -18.2765 -18.2765 -17.6316 -17.6316 -17.6085 -17.6085 -17.5118 -17.5118
   -17.3589 -17.3589 -17.3436 -17.3436  -9.9258  -9.9258  -9.5303  -9.5303
    -9.2253  -9.2253  -9.1546  -9.1546  -9.0135  -9.0135  -8.4537  -8.4537
    -8.2151  -8.2151  -8.0146  -8.0146  -7.8506  -7.8506  -7.7263  -7.7263
    -7.4771  -7.4771  -7.3629  -7.3629  -7.2485  -7.2485  -7.0436  -7.0436
    -6.6951  -6.6951  -6.5141  -6.5141  -6.3159  -6.3159  -6.0221  -6.0221
    -5.0715  -5.0715  -5.0421  -5.0421  -4.9020  -4.9020  -4.8363  -4.8363
    -4.7631  -4.7631  -4.6909  -4.6909  -3.7521  -3.7521  -3.6084  -3.6084
    -3.5816  -3.5816  -3.4201  -3.4201  -0.3912  -0.3912  -0.2335  -0.2335
     0.0999   0.0999   0.2784   0.2784   0.6367   0.6367   0.8170   0.8170
     1.1453   1.1453   1.4132   1.4132   1.4998   1.4998   1.7286   1.7286
     1.8386   1.8386   1.8532   1.8532   2.1080   2.1080   2.1274   2.1274
     2.4598   2.4598   2.5241   2.5241   2.6714   2.6714   2.8773   2.8773
     3.1735   3.1735   3.4939   3.4939   3.6382   3.6382   3.6822   3.6822
     3.7845   3.7845   3.8133   3.8133   3.9473   3.9473   4.1036   4.1036
     4.3336   4.3336   4.5640   4.5640   4.5997   4.5997   5.1776   5.1776
     5.2320   5.2320   5.4252   5.4252   5.4666   5.4666   5.6507   5.6507
     5.7105   5.7105   5.7712   5.7712   5.8661   5.8661   6.3083   6.3083
     6.4970   6.4970   6.5411   6.5411   6.6590   6.6590   7.2279   7.2279
     7.2694   7.2694   7.4949   7.4949   7.6763   7.6763   7.7087   7.7087
     7.8863   7.8863   7.9230   7.9230   8.0039   8.0039   8.2320   8.2320
     8.3758   8.3758   8.5329   8.5329   8.7254   8.7254   8.8657   8.8657
     8.9731   8.9731   9.0223   9.0223   9.2010   9.2010   9.4286   9.4286
     9.5095   9.5095   9.6461   9.6461   9.7538   9.7538   9.8200   9.8200
     9.9032   9.9032  10.1340  10.1340  10.1644  10.1644  10.2867  10.2867
    10.3895  10.3895  10.4973  10.4973  10.5337  10.5337  10.6116  10.6116
    10.6965  10.6965  10.7031  10.7031  10.9522  10.9522  10.9823  10.9823
    11.0466  11.0466  11.1417  11.1417  11.2443  11.2444  11.2569  11.2569
    11.5025  11.5025  11.7354  11.7354  11.8144  11.8144  11.8982  11.8982
    11.9858  11.9858  12.0566  12.0566  12.1150  12.1150  12.4752  12.4752
    12.6369  12.6369  12.6532  12.6532  12.8157  12.8157  12.8731  12.8731
    12.9261  12.9261  13.0250  13.0250  13.1497  13.1497  13.2662  13.2662
    13.6391  13.6391  13.7630  13.7630  13.9191  13.9191  13.9906  13.9906
    14.0437  14.0437  14.0654  14.0654  14.2507  14.2507  14.4620  14.4620
    14.4918  14.4918  14.5444  14.5444  14.5908  14.5908  14.6602  14.6602
    14.7038  14.7038  14.9249  14.9249  14.9946  14.9946  15.0056  15.0056
    15.0274  15.0274  15.0861  15.0861  15.1161  15.1161  15.3426  15.3426
    15.4205  15.4205  15.6912  15.6912  15.7158  15.7158  15.7993  15.7993
    15.8293  15.8293  15.9118  15.9118  15.9277  15.9277  16.1464  16.1464
    16.2957  16.2957  16.3569  16.3569  16.4363  16.4363  16.5176  16.5176
    16.5646  16.5646  16.6734  16.6734  16.8405  16.8405  16.8826  16.8826
    17.1209  17.1209  17.1442  17.1442  17.1850  17.1850  17.2099  17.2099
    17.2773  17.2773  17.3220  17.3220  17.5502  17.5502  17.6097  17.6097
    17.7434  17.7434  17.8354  17.8354  17.9502  17.9502  18.1460  18.1460
    18.1950  18.1950  18.1976  18.1976  18.4813  18.4813  18.5075  18.5075
    18.5566  18.5566  18.6088  18.6088  18.6589  18.6589  18.7164  18.7164
    18.7734  18.7734  18.8078  18.8078  18.9117  18.9117  18.9206  18.9206
    18.9807  18.9807  19.0459  19.0459  19.2150  19.2150  19.3381  19.3381
    19.3646  19.3646  19.6831  19.6831  19.6892  19.6892  19.7132  19.7132
    19.9519  19.9519  20.0011  20.0011  20.1172  20.1172  20.2446  20.2446
    20.2934  20.2934  20.3355  20.3355  20.4718  20.4718  20.5879  20.5879
    20.6466  20.6466  20.6600  20.6601  20.6852  20.6852  20.9274  20.9274
    20.9820  20.9820  21.0613  21.0613  21.0988  21.0988  21.1636  21.1636
    21.2107  21.2107  21.2315  21.2315  21.2585  21.2585  21.5088  21.5088
    21.5553  21.5553  21.6343  21.6343  21.6624  21.6624  21.7986  21.7986
    21.8746  21.8746  21.9406  21.9406  21.9914  21.9914  22.0446  22.0446
    22.0836  22.0836  22.1836  22.1836  22.2572  22.2572  22.3386  22.3386
    22.4441  22.4441  22.4638  22.4638  22.5784  22.5784  22.6599  22.6599
    22.7397  22.7397  22.8319  22.8320  22.8689  22.8689  22.9383  22.9383
    23.0268  23.0268  23.1705  23.1705  23.1857  23.1857  23.2927  23.2927
    23.3028  23.3028  23.3169  23.3169  23.4259  23.4259  23.7049  23.7049
    23.7463  23.7463  23.7711  23.7711  23.7932  23.7932  23.8170  23.8170
    23.9456  23.9456  24.0219  24.0219  24.0607  24.0607  24.1853  24.1853
    24.3864  24.3864  24.4119  24.4119  24.4563  24.4563  24.6910  24.6910
    24.7444  24.7444  24.7690  24.7690  24.8989  24.8989  24.9633  24.9633
    25.0290  25.0290  25.0362  25.0362  25.2109  25.2109  25.2199  25.2199
    25.3260  25.3260  25.3795  25.3795  25.4784  25.4784  25.4958  25.4958
    25.6274  25.6274  25.7174  25.7174  25.7997  25.7997  25.8243  25.8243
    25.8423  25.8423  25.8588  25.8588  25.9772  25.9772  25.9896  25.9896
    26.1059  26.1059  26.1313  26.1313  26.3554  26.3554  26.3687  26.3687
    26.4779  26.4779  26.5055  26.5055  26.6090  26.6090  26.6294  26.6294
    26.8184  26.8184  26.9286  26.9286  27.0372  27.0372  27.1059  27.1059
    27.1744  27.1744  27.1885  27.1885  27.2989  27.2989  27.3135  27.3135
    27.3577  27.3577  27.3931  27.3931  27.4712  27.4712  27.5702  27.5702
    27.5848  27.5848  27.7132  27.7132  27.8460  27.8460  27.8993  27.8993
    28.0374  28.0374  28.1245  28.1245  28.1798  28.1798  28.2470  28.2470
    28.2575  28.2575  28.3379  28.3379  28.3489  28.3489  28.3601  28.3601
    28.4808  28.4808  28.5403  28.5403  28.6321  28.6321  28.6698  28.6698
    28.9631  28.9631  28.9871  28.9871  28.9990  28.9990  29.0707  29.0707
    29.1281  29.1281  29.1932  29.1932  29.2844  29.2844  29.4617  29.4617
    29.4974  29.4974  29.6557  29.6557  29.6823  29.6823  29.7246  29.7246
    29.7301  29.7301  29.7637  29.7637  29.8019  29.8019  29.9107  29.9107
    30.1317  30.1317  30.1615  30.1615  30.1902  30.1902  30.2193  30.2193
    30.2734  30.2734  30.3533  30.3533  30.3703  30.3703  30.5530  30.5530
    30.5738  30.5738  30.6120  30.6120  30.7169  30.7169  30.7783  30.7783
    30.8967  30.8967  30.9339  30.9339  30.9895  30.9895  31.1847  31.1847
    31.3323  31.3323  31.3845  31.3845  31.4240  31.4240  31.6124  31.6124
    31.7011  31.7011  31.7117  31.7117  31.8077  31.8077  31.8432  31.8432
    31.8507  31.8507  31.9237  31.9237  31.9434  31.9434  31.9651  31.9651
    32.0111  32.0111  32.0930  32.0930  32.1434  32.1434  32.2191  32.2192
    32.2346  32.2346  32.2784  32.2784  32.3434  32.3434  32.4616  32.4616
    32.5654  32.5654  32.5858  32.5858  32.6416  32.6416  32.6746  32.6746
    32.7156  32.7156  32.7567  32.7567  32.8111  32.8111  32.8990  32.8990
    33.0140  33.0140  33.0559  33.0559  33.1436  33.1436  33.2482  33.2482
    33.2683  33.2683  33.3319  33.3319  33.3548  33.3548  33.4653  33.4653
    33.5266  33.5266  33.5615  33.5615  33.6297  33.6297  33.6525  33.6525
    33.6907  33.6907  33.8317  33.8317  33.8571  33.8571  33.8762  33.8762
    33.9207  33.9207  34.0960  34.0960  34.1841  34.1841  34.2185  34.2185

     occupation numbers 
     1.0000   1.0000   1.0000   1.0000   1.0000   1.0000   1.0000   1.0000
     1.0000   1.0000   1.0000   1.0000   1.0000   1.0000   1.0000   1.0000
     1.0000   1.0000   1.0000   1.0000   1.0000   1.0000   1.0000   1.0000
     1.0000   1.0000   1.0000   1.0000   1.0000   1.0000   1.0000   1.0000
     1.0000   1.0000   1.0000   1.0000   1.0000   1.0000   1.0000   1.0000
     1.0000   1.0000   1.0000   1.0000   1.0000   1.0000   1.0000   1.0000
     1.0000   1.0000   1.0000   1.0000   1.0000   1.0000   1.0000   1.0000
     1.0000   1.0000   1.0000   1.0000   1.0000   1.0000   1.0000   1.0000
     1.0000   1.0000   1.0000   1.0000   1.0000   1.0000   0.0000   0.0000
     0.0000   0.0000   0.0000   0.0000   0.0000   0.0000   0.0000   0.0000
     0.0000   0.0000   0.0000   0.0000   0.0000   0.0000   0.0000   0.0000
     0.0000   0.0000   0.0000   0.0000   0.0000   0.0000   0.0000   0.0000
     0.0000   0.0000   0.0000   0.0000   0.0000   0.0000   0.0000   0.0000
     0.0000   0.0000   0.0000   0.0000   0.0000   0.0000   0.0000   0.0000
     0.0000   0.0000   0.0000   0.0000   0.0000   0.0000   0.0000   0.0000
     0.0000   0.0000   0.0000   0.0000   0.0000   0.0000   0.0000   0.0000
     0.0000   0.0000   0.0000   0.0000   0.0000   0.0000   0.0000   0.0000
     0.0000   0.0000   0.0000   0.0000   0.0000   0.0000   0.0000   0.0000
     0.0000   0.0000   0.0000   0.0000   0.0000   0.0000   0.0000   0.0000
     0.0000   0.0000   0.0000   0.0000   0.0000   0.0000   0.0000   0.0000
     0.0000   0.0000   0.0000   0.0000   0.0000   0.0000   0.0000   0.0000
     0.0000   0.0000   0.0000   0.0000   0.0000   0.0000   0.0000   0.0000
     0.0000   0.0000   0.0000   0.0000   0.0000   0.0000   0.0000   0.0000
     0.0000   0.0000   0.0000   0.0000   0.0000   0.0000   0.0000   0.0000
     0.0000   0.0000   0.0000   0.0000   0.0000   0.0000   0.0000   0.0000
     0.0000   0.0000   0.0000   0.0000   0.0000   0.0000   0.0000   0.0000
     0.0000   0.0000   0.0000   0.0000   0.0000   0.0000   0.0000   0.0000
     0.0000   0.0000   0.0000   0.0000   0.0000   0.0000   0.0000   0.0000
     0.0000   0.0000   0.0000   0.0000   0.0000   0.0000   0.0000   0.0000
     0.0000   0.0000   0.0000   0.0000   0.0000   0.0000   0.0000   0.0000
     0.0000   0.0000   0.0000   0.0000   0.0000   0.0000   0.0000   0.0000
     0.0000   0.0000   0.0000   0.0000   0.0000   0.0000   0.0000   0.0000
     0.0000   0.0000   0.0000   0.0000   0.0000   0.0000   0.0000   0.0000
     0.0000   0.0000   0.0000   0.0000   0.0000   0.0000   0.0000   0.0000
     0.0000   0.0000   0.0000   0.0000   0.0000   0.0000   0.0000   0.0000
     0.0000   0.0000   0.0000   0.0000   0.0000   0.0000   0.0000   0.0000
     0.0000   0.0000   0.0000   0.0000   0.0000   0.0000   0.0000   0.0000
     0.0000   0.0000   0.0000   0.0000   0.0000   0.0000   0.0000   0.0000
     0.0000   0.0000   0.0000   0.0000   0.0000   0.0000   0.0000   0.0000
     0.0000   0.0000   0.0000   0.0000   0.0000   0.0000   0.0000   0.0000
     0.0000   0.0000   0.0000   0.0000   0.0000   0.0000   0.0000   0.0000
     0.0000   0.0000   0.0000   0.0000   0.0000   0.0000   0.0000   0.0000
     0.0000   0.0000   0.0000   0.0000   0.0000   0.0000   0.0000   0.0000
     0.0000   0.0000   0.0000   0.0000   0.0000   0.0000   0.0000   0.0000
     0.0000   0.0000   0.0000   0.0000   0.0000   0.0000   0.0000   0.0000
     0.0000   0.0000   0.0000   0.0000   0.0000   0.0000   0.0000   0.0000
     0.0000   0.0000   0.0000   0.0000   0.0000   0.0000   0.0000   0.0000
     0.0000   0.0000   0.0000   0.0000   0.0000   0.0000   0.0000   0.0000
     0.0000   0.0000   0.0000   0.0000   0.0000   0.0000   0.0000   0.0000
     0.0000   0.0000   0.0000   0.0000   0.0000   0.0000   0.0000   0.0000
     0.0000   0.0000   0.0000   0.0000   0.0000   0.0000   0.0000   0.0000
     0.0000   0.0000   0.0000   0.0000   0.0000   0.0000   0.0000   0.0000
     0.0000   0.0000   0.0000   0.0000   0.0000   0.0000   0.0000   0.0000
     0.0000   0.0000   0.0000   0.0000   0.0000   0.0000   0.0000   0.0000
     0.0000   0.0000   0.0000   0.0000   0.0000   0.0000   0.0000   0.0000
     0.0000   0.0000   0.0000   0.0000   0.0000   0.0000   0.0000   0.0000
     0.0000   0.0000   0.0000   0.0000   0.0000   0.0000   0.0000   0.0000
     0.0000   0.0000   0.0000   0.0000   0.0000   0.0000   0.0000   0.0000
     0.0000   0.0000   0.0000   0.0000   0.0000   0.0000   0.0000   0.0000
     0.0000   0.0000   0.0000   0.0000   0.0000   0.0000   0.0000   0.0000
     0.0000   0.0000   0.0000   0.0000   0.0000   0.0000   0.0000   0.0000
     0.0000   0.0000   0.0000   0.0000   0.0000   0.0000   0.0000   0.0000
     0.0000   0.0000   0.0000   0.0000   0.0000   0.0000   0.0000   0.0000
     0.0000   0.0000   0.0000   0.0000   0.0000   0.0000   0.0000   0.0000
     0.0000   0.0000   0.0000   0.0000   0.0000   0.0000   0.0000   0.0000
     0.0000   0.0000   0.0000   0.0000   0.0000   0.0000   0.0000   0.0000
     0.0000   0.0000   0.0000   0.0000   0.0000   0.0000   0.0000   0.0000
     0.0000   0.0000   0.0000   0.0000   0.0000   0.0000   0.0000   0.0000
     0.0000   0.0000   0.0000   0.0000   0.0000   0.0000   0.0000   0.0000
     0.0000   0.0000   0.0000   0.0000   0.0000   0.0000   0.0000   0.0000
     0.0000   0.0000   0.0000   0.0000   0.0000   0.0000   0.0000   0.0000
     0.0000   0.0000   0.0000   0.0000   0.0000   0.0000   0.0000   0.0000
     0.0000   0.0000   0.0000   0.0000   0.0000   0.0000   0.0000   0.0000
     0.0000   0.0000   0.0000   0.0000   0.0000   0.0000   0.0000   0.0000
     0.0000   0.0000   0.0000   0.0000   0.0000   0.0000   0.0000   0.0000
     0.0000   0.0000   0.0000   0.0000   0.0000   0.0000   0.0000   0.0000
     0.0000   0.0000   0.0000   0.0000   0.0000   0.0000   0.0000   0.0000
     0.0000   0.0000   0.0000   0.0000   0.0000   0.0000   0.0000   0.0000
     0.0000   0.0000   0.0000   0.0000   0.0000   0.0000   0.0000   0.0000
     0.0000   0.0000   0.0000   0.0000   0.0000   0.0000   0.0000   0.0000
     0.0000   0.0000   0.0000   0.0000   0.0000   0.0000   0.0000   0.0000
     0.0000   0.0000   0.0000   0.0000   0.0000   0.0000   0.0000   0.0000
     0.0000   0.0000   0.0000   0.0000   0.0000   0.0000   0.0000   0.0000
     0.0000   0.0000   0.0000   0.0000   0.0000   0.0000   0.0000   0.0000
     0.0000   0.0000   0.0000   0.0000   0.0000   0.0000   0.0000   0.0000
     0.0000   0.0000   0.0000   0.0000   0.0000   0.0000   0.0000   0.0000
     0.0000   0.0000   0.0000   0.0000   0.0000   0.0000   0.0000   0.0000
     0.0000   0.0000   0.0000   0.0000   0.0000   0.0000   0.0000   0.0000
     0.0000   0.0000   0.0000   0.0000   0.0000   0.0000   0.0000   0.0000
     0.0000   0.0000   0.0000   0.0000   0.0000   0.0000   0.0000   0.0000
     0.0000   0.0000   0.0000   0.0000   0.0000   0.0000   0.0000   0.0000
     0.0000   0.0000   0.0000   0.0000   0.0000   0.0000   0.0000   0.0000
     0.0000   0.0000   0.0000   0.0000   0.0000   0.0000   0.0000   0.0000
     0.0000   0.0000   0.0000   0.0000   0.0000   0.0000   0.0000   0.0000
     0.0000   0.0000   0.0000   0.0000   0.0000   0.0000   0.0000   0.0000
     0.0000   0.0000   0.0000   0.0000   0.0000   0.0000   0.0000   0.0000
     0.0000   0.0000   0.0000   0.0000   0.0000   0.0000   0.0000   0.0000
     0.0000   0.0000   0.0000   0.0000   0.0000   0.0000   0.0000   0.0000
     0.0000   0.0000   0.0000   0.0000   0.0000   0.0000   0.0000   0.0000
     0.0000   0.0000   0.0000   0.0000   0.0000   0.0000   0.0000   0.0000

          k = 0.1667 0.4811 0.0000 ( 59892 PWs)   bands (ev):

   -76.7250 -76.7250 -76.7249 -76.7249 -48.7781 -48.7781 -48.7776 -48.7776
   -47.7524 -47.7524 -47.7513 -47.7513 -47.7482 -47.7482 -47.7480 -47.7480
   -18.0937 -18.0937 -17.7989 -17.7989 -17.5689 -17.5689 -17.5333 -17.5333
   -17.4193 -17.4193 -17.3655 -17.3655  -9.8575  -9.8575  -9.4550  -9.4550
    -9.2305  -9.2305  -9.0627  -9.0627  -8.8976  -8.8976  -8.5255  -8.5255
    -8.3173  -8.3173  -8.0530  -8.0530  -7.8565  -7.8565  -7.7033  -7.7033
    -7.5390  -7.5390  -7.2867  -7.2867  -7.0990  -7.0990  -6.8957  -6.8957
    -6.7803  -6.7803  -6.5602  -6.5602  -6.3617  -6.3617  -6.1382  -6.1382
    -5.1275  -5.1275  -5.0305  -5.0305  -4.9420  -4.9420  -4.8494  -4.8494
    -4.7402  -4.7402  -4.6696  -4.6696  -3.7121  -3.7121  -3.5974  -3.5973
    -3.5389  -3.5389  -3.4403  -3.4403  -0.6595  -0.6595  -0.1370  -0.1370
     0.1674   0.1674   0.3067   0.3067   0.5442   0.5442   0.5805   0.5805
     0.8732   0.8732   1.0274   1.0274   1.1697   1.1697   1.3777   1.3777
     1.5048   1.5048   1.8889   1.8889   2.1073   2.1073   2.1787   2.1787
     2.4282   2.4282   2.6294   2.6294   2.6890   2.6890   3.1057   3.1057
     3.1838   3.1838   3.3156   3.3156   3.4023   3.4023   3.6853   3.6853
     3.8061   3.8061   3.9894   3.9894   4.0400   4.0400   4.3648   4.3648
     4.6437   4.6437   4.8725   4.8725   5.1552   5.1552   5.3454   5.3454
     5.4808   5.4808   5.5046   5.5046   5.6601   5.6601   5.7211   5.7211
     6.0219   6.0219   6.1787   6.1787   6.2597   6.2597   6.3479   6.3479
     6.6309   6.6309   6.6918   6.6918   7.0151   7.0151   7.1393   7.1393
     7.2880   7.2880   7.3493   7.3493   7.4879   7.4879   7.6409   7.6409
     7.7124   7.7124   7.8642   7.8642   8.0434   8.0434   8.1796   8.1796
     8.3073   8.3073   8.6245   8.6245   8.7213   8.7213   8.8500   8.8500
     8.8780   8.8780   9.0298   9.0298   9.1876   9.1876   9.2904   9.2904
     9.4204   9.4204   9.5754   9.5754   9.5981   9.5981   9.6605   9.6605
     9.7999   9.7999   9.8683   9.8683   9.9497   9.9497  10.0878  10.0878
    10.2125  10.2125  10.4152  10.4152  10.6163  10.6163  10.7376  10.7376
    10.8983  10.8983  10.9846  10.9846  11.0399  11.0399  11.2048  11.2048
    11.3089  11.3089  11.3542  11.3542  11.5781  11.5781  11.6012  11.6012
    11.6441  11.6441  11.7212  11.7212  11.8431  11.8431  11.9774  11.9774
    12.1507  12.1507  12.2721  12.2721  12.3346  12.3346  12.3773  12.3773
    12.4627  12.4627  12.5288  12.5288  12.6781  12.6781  12.8438  12.8438
    13.0282  13.0282  13.0797  13.0797  13.2467  13.2467  13.2756  13.2756
    13.3702  13.3702  13.4204  13.4204  13.5195  13.5195  13.6140  13.6140
    13.7147  13.7147  13.7976  13.7976  13.8763  13.8763  13.9889  13.9889
    14.1218  14.1218  14.2136  14.2136  14.3326  14.3326  14.5232  14.5232
    14.6094  14.6094  14.8435  14.8435  14.9140  14.9140  14.9686  14.9686
    15.1324  15.1324  15.1829  15.1829  15.2753  15.2753  15.3538  15.3538
    15.5060  15.5060  15.5516  15.5516  15.6383  15.6383  15.7647  15.7647
    15.8387  15.8387  16.0557  16.0557  16.0715  16.0715  16.1179  16.1179
    16.2743  16.2743  16.3275  16.3275  16.4306  16.4306  16.4754  16.4754
    16.5166  16.5166  16.6199  16.6199  16.6641  16.6641  16.7867  16.7867
    16.9586  16.9586  17.0251  17.0251  17.1222  17.1222  17.1960  17.1960
    17.2788  17.2788  17.3324  17.3324  17.4462  17.4462  17.5739  17.5739
    17.6299  17.6299  17.7698  17.7698  17.8513  17.8513  17.8660  17.8660
    17.9895  17.9895  17.9950  17.9950  18.0270  18.0270  18.2119  18.2119
    18.2439  18.2439  18.2885  18.2885  18.6310  18.6310  18.6469  18.6469
    18.7920  18.7920  18.8574  18.8574  19.0162  19.0162  19.0870  19.0870
    19.2037  19.2037  19.2702  19.2702  19.3410  19.3410  19.4429  19.4429
    19.5320  19.5320  19.6023  19.6023  19.6524  19.6524  19.7481  19.7481
    19.8796  19.8796  19.9801  19.9801  20.0632  20.0632  20.1290  20.1290
    20.2755  20.2755  20.4178  20.4178  20.4521  20.4521  20.6032  20.6032
    20.6420  20.6420  20.7263  20.7263  20.7985  20.7985  20.8654  20.8654
    20.8951  20.8951  20.9786  20.9786  21.1309  21.1309  21.1629  21.1629
    21.2238  21.2238  21.3233  21.3233  21.4790  21.4790  21.6227  21.6227
    21.6731  21.6731  21.7465  21.7465  21.8330  21.8330  21.8523  21.8523
    21.9273  21.9273  22.0691  22.0691  22.1007  22.1007  22.1423  22.1423
    22.1895  22.1895  22.2856  22.2856  22.4348  22.4348  22.4775  22.4775
    22.6069  22.6069  22.6676  22.6676  22.8252  22.8252  22.9099  22.9099
    23.0110  23.0110  23.0674  23.0674  23.1563  23.1563  23.1903  23.1903
    23.2578  23.2578  23.2757  23.2757  23.3702  23.3702  23.4143  23.4143
    23.5015  23.5015  23.5666  23.5666  23.6814  23.6814  23.7567  23.7567
    23.8141  23.8141  23.8861  23.8861  23.9768  23.9768  24.0249  24.0249
    24.1539  24.1539  24.1922  24.1922  24.2098  24.2098  24.3060  24.3060
    24.4180  24.4180  24.4550  24.4550  24.4902  24.4902  24.6114  24.6114
    24.7323  24.7323  24.8104  24.8104  24.8786  24.8786  24.9146  24.9146
    24.9974  24.9974  25.0586  25.0586  25.0992  25.0992  25.2191  25.2191
    25.2869  25.2869  25.3289  25.3289  25.4772  25.4772  25.5693  25.5693
    25.6714  25.6714  25.7003  25.7003  25.7347  25.7347  25.8180  25.8180
    25.8975  25.8975  25.9160  25.9161  25.9315  25.9315  26.0560  26.0560
    26.2287  26.2287  26.3179  26.3179  26.3399  26.3399  26.3595  26.3595
    26.5332  26.5332  26.5913  26.5913  26.6339  26.6339  26.7237  26.7237
    26.8317  26.8317  26.9364  26.9364  27.0177  27.0177  27.0976  27.0976
    27.2445  27.2445  27.2927  27.2927  27.3147  27.3147  27.3782  27.3782
    27.4281  27.4281  27.5048  27.5048  27.6436  27.6436  27.7133  27.7133
    27.8016  27.8016  27.8322  27.8322  27.9369  27.9369  27.9513  27.9513
    28.0554  28.0554  28.1769  28.1769  28.3526  28.3526  28.3823  28.3823
    28.4635  28.4635  28.4763  28.4763  28.5000  28.5000  28.5620  28.5620
    28.6431  28.6431  28.6589  28.6589  28.7415  28.7415  28.8175  28.8175
    28.8480  28.8480  28.9249  28.9249  28.9703  28.9703  29.0446  29.0446
    29.1081  29.1081  29.1605  29.1605  29.2482  29.2482  29.3734  29.3734
    29.4830  29.4830  29.5191  29.5191  29.5821  29.5821  29.6330  29.6330
    29.6584  29.6584  29.7521  29.7521  29.7792  29.7792  29.8351  29.8351
    29.8752  29.8752  29.8900  29.8900  29.9077  29.9077  30.0793  30.0793
    30.1640  30.1640  30.2017  30.2017  30.3136  30.3136  30.3560  30.3560
    30.4424  30.4424  30.5356  30.5356  30.5564  30.5564  30.6712  30.6712
    30.7176  30.7176  30.7540  30.7540  30.8946  30.8946  30.9710  30.9710
    31.0273  31.0273  31.1079  31.1079  31.1645  31.1645  31.2604  31.2604
    31.2801  31.2801  31.3709  31.3709  31.4414  31.4414  31.4786  31.4786
    31.5791  31.5791  31.6566  31.6566  31.6897  31.6897  31.7123  31.7123
    31.8139  31.8139  31.8543  31.8543  31.9301  31.9301  32.0351  32.0351
    32.0573  32.0573  32.1300  32.1300  32.1821  32.1821  32.2142  32.2142
    32.3580  32.3580  32.3896  32.3896  32.5332  32.5332  32.5598  32.5598
    32.6234  32.6234  32.6863  32.6863  32.7584  32.7584  32.8744  32.8744
    32.9705  32.9705  33.0146  33.0146  33.0932  33.0932  33.1970  33.1970
    33.2754  33.2754  33.4253  33.4253  33.4502  33.4502  33.5077  33.5077
    33.5719  33.5719  33.6478  33.6478  33.6812  33.6812  33.7614  33.7614
    33.8101  33.8101  33.8377  33.8377  33.8985  33.8985  33.9476  33.9476
    34.0179  34.0179  34.1025  34.1025  34.1895  34.1895  34.2679  34.2679

     occupation numbers 
     1.0000   1.0000   1.0000   1.0000   1.0000   1.0000   1.0000   1.0000
     1.0000   1.0000   1.0000   1.0000   1.0000   1.0000   1.0000   1.0000
     1.0000   1.0000   1.0000   1.0000   1.0000   1.0000   1.0000   1.0000
     1.0000   1.0000   1.0000   1.0000   1.0000   1.0000   1.0000   1.0000
     1.0000   1.0000   1.0000   1.0000   1.0000   1.0000   1.0000   1.0000
     1.0000   1.0000   1.0000   1.0000   1.0000   1.0000   1.0000   1.0000
     1.0000   1.0000   1.0000   1.0000   1.0000   1.0000   1.0000   1.0000
     1.0000   1.0000   1.0000   1.0000   1.0000   1.0000   1.0000   1.0000
     1.0000   1.0000   1.0000   1.0000   1.0000   1.0000   0.0000   0.0000
     0.0000   0.0000   0.0000   0.0000   0.0000   0.0000   0.0000   0.0000
     0.0000   0.0000   0.0000   0.0000   0.0000   0.0000   0.0000   0.0000
     0.0000   0.0000   0.0000   0.0000   0.0000   0.0000   0.0000   0.0000
     0.0000   0.0000   0.0000   0.0000   0.0000   0.0000   0.0000   0.0000
     0.0000   0.0000   0.0000   0.0000   0.0000   0.0000   0.0000   0.0000
     0.0000   0.0000   0.0000   0.0000   0.0000   0.0000   0.0000   0.0000
     0.0000   0.0000   0.0000   0.0000   0.0000   0.0000   0.0000   0.0000
     0.0000   0.0000   0.0000   0.0000   0.0000   0.0000   0.0000   0.0000
     0.0000   0.0000   0.0000   0.0000   0.0000   0.0000   0.0000   0.0000
     0.0000   0.0000   0.0000   0.0000   0.0000   0.0000   0.0000   0.0000
     0.0000   0.0000   0.0000   0.0000   0.0000   0.0000   0.0000   0.0000
     0.0000   0.0000   0.0000   0.0000   0.0000   0.0000   0.0000   0.0000
     0.0000   0.0000   0.0000   0.0000   0.0000   0.0000   0.0000   0.0000
     0.0000   0.0000   0.0000   0.0000   0.0000   0.0000   0.0000   0.0000
     0.0000   0.0000   0.0000   0.0000   0.0000   0.0000   0.0000   0.0000
     0.0000   0.0000   0.0000   0.0000   0.0000   0.0000   0.0000   0.0000
     0.0000   0.0000   0.0000   0.0000   0.0000   0.0000   0.0000   0.0000
     0.0000   0.0000   0.0000   0.0000   0.0000   0.0000   0.0000   0.0000
     0.0000   0.0000   0.0000   0.0000   0.0000   0.0000   0.0000   0.0000
     0.0000   0.0000   0.0000   0.0000   0.0000   0.0000   0.0000   0.0000
     0.0000   0.0000   0.0000   0.0000   0.0000   0.0000   0.0000   0.0000
     0.0000   0.0000   0.0000   0.0000   0.0000   0.0000   0.0000   0.0000
     0.0000   0.0000   0.0000   0.0000   0.0000   0.0000   0.0000   0.0000
     0.0000   0.0000   0.0000   0.0000   0.0000   0.0000   0.0000   0.0000
     0.0000   0.0000   0.0000   0.0000   0.0000   0.0000   0.0000   0.0000
     0.0000   0.0000   0.0000   0.0000   0.0000   0.0000   0.0000   0.0000
     0.0000   0.0000   0.0000   0.0000   0.0000   0.0000   0.0000   0.0000
     0.0000   0.0000   0.0000   0.0000   0.0000   0.0000   0.0000   0.0000
     0.0000   0.0000   0.0000   0.0000   0.0000   0.0000   0.0000   0.0000
     0.0000   0.0000   0.0000   0.0000   0.0000   0.0000   0.0000   0.0000
     0.0000   0.0000   0.0000   0.0000   0.0000   0.0000   0.0000   0.0000
     0.0000   0.0000   0.0000   0.0000   0.0000   0.0000   0.0000   0.0000
     0.0000   0.0000   0.0000   0.0000   0.0000   0.0000   0.0000   0.0000
     0.0000   0.0000   0.0000   0.0000   0.0000   0.0000   0.0000   0.0000
     0.0000   0.0000   0.0000   0.0000   0.0000   0.0000   0.0000   0.0000
     0.0000   0.0000   0.0000   0.0000   0.0000   0.0000   0.0000   0.0000
     0.0000   0.0000   0.0000   0.0000   0.0000   0.0000   0.0000   0.0000
     0.0000   0.0000   0.0000   0.0000   0.0000   0.0000   0.0000   0.0000
     0.0000   0.0000   0.0000   0.0000   0.0000   0.0000   0.0000   0.0000
     0.0000   0.0000   0.0000   0.0000   0.0000   0.0000   0.0000   0.0000
     0.0000   0.0000   0.0000   0.0000   0.0000   0.0000   0.0000   0.0000
     0.0000   0.0000   0.0000   0.0000   0.0000   0.0000   0.0000   0.0000
     0.0000   0.0000   0.0000   0.0000   0.0000   0.0000   0.0000   0.0000
     0.0000   0.0000   0.0000   0.0000   0.0000   0.0000   0.0000   0.0000
     0.0000   0.0000   0.0000   0.0000   0.0000   0.0000   0.0000   0.0000
     0.0000   0.0000   0.0000   0.0000   0.0000   0.0000   0.0000   0.0000
     0.0000   0.0000   0.0000   0.0000   0.0000   0.0000   0.0000   0.0000
     0.0000   0.0000   0.0000   0.0000   0.0000   0.0000   0.0000   0.0000
     0.0000   0.0000   0.0000   0.0000   0.0000   0.0000   0.0000   0.0000
     0.0000   0.0000   0.0000   0.0000   0.0000   0.0000   0.0000   0.0000
     0.0000   0.0000   0.0000   0.0000   0.0000   0.0000   0.0000   0.0000
     0.0000   0.0000   0.0000   0.0000   0.0000   0.0000   0.0000   0.0000
     0.0000   0.0000   0.0000   0.0000   0.0000   0.0000   0.0000   0.0000
     0.0000   0.0000   0.0000   0.0000   0.0000   0.0000   0.0000   0.0000
     0.0000   0.0000   0.0000   0.0000   0.0000   0.0000   0.0000   0.0000
     0.0000   0.0000   0.0000   0.0000   0.0000   0.0000   0.0000   0.0000
     0.0000   0.0000   0.0000   0.0000   0.0000   0.0000   0.0000   0.0000
     0.0000   0.0000   0.0000   0.0000   0.0000   0.0000   0.0000   0.0000
     0.0000   0.0000   0.0000   0.0000   0.0000   0.0000   0.0000   0.0000
     0.0000   0.0000   0.0000   0.0000   0.0000   0.0000   0.0000   0.0000
     0.0000   0.0000   0.0000   0.0000   0.0000   0.0000   0.0000   0.0000
     0.0000   0.0000   0.0000   0.0000   0.0000   0.0000   0.0000   0.0000
     0.0000   0.0000   0.0000   0.0000   0.0000   0.0000   0.0000   0.0000
     0.0000   0.0000   0.0000   0.0000   0.0000   0.0000   0.0000   0.0000
     0.0000   0.0000   0.0000   0.0000   0.0000   0.0000   0.0000   0.0000
     0.0000   0.0000   0.0000   0.0000   0.0000   0.0000   0.0000   0.0000
     0.0000   0.0000   0.0000   0.0000   0.0000   0.0000   0.0000   0.0000
     0.0000   0.0000   0.0000   0.0000   0.0000   0.0000   0.0000   0.0000
     0.0000   0.0000   0.0000   0.0000   0.0000   0.0000   0.0000   0.0000
     0.0000   0.0000   0.0000   0.0000   0.0000   0.0000   0.0000   0.0000
     0.0000   0.0000   0.0000   0.0000   0.0000   0.0000   0.0000   0.0000
     0.0000   0.0000   0.0000   0.0000   0.0000   0.0000   0.0000   0.0000
     0.0000   0.0000   0.0000   0.0000   0.0000   0.0000   0.0000   0.0000
     0.0000   0.0000   0.0000   0.0000   0.0000   0.0000   0.0000   0.0000
     0.0000   0.0000   0.0000   0.0000   0.0000   0.0000   0.0000   0.0000
     0.0000   0.0000   0.0000   0.0000   0.0000   0.0000   0.0000   0.0000
     0.0000   0.0000   0.0000   0.0000   0.0000   0.0000   0.0000   0.0000
     0.0000   0.0000   0.0000   0.0000   0.0000   0.0000   0.0000   0.0000
     0.0000   0.0000   0.0000   0.0000   0.0000   0.0000   0.0000   0.0000
     0.0000   0.0000   0.0000   0.0000   0.0000   0.0000   0.0000   0.0000
     0.0000   0.0000   0.0000   0.0000   0.0000   0.0000   0.0000   0.0000
     0.0000   0.0000   0.0000   0.0000   0.0000   0.0000   0.0000   0.0000
     0.0000   0.0000   0.0000   0.0000   0.0000   0.0000   0.0000   0.0000
     0.0000   0.0000   0.0000   0.0000   0.0000   0.0000   0.0000   0.0000
     0.0000   0.0000   0.0000   0.0000   0.0000   0.0000   0.0000   0.0000
     0.0000   0.0000   0.0000   0.0000   0.0000   0.0000   0.0000   0.0000
     0.0000   0.0000   0.0000   0.0000   0.0000   0.0000   0.0000   0.0000
     0.0000   0.0000   0.0000   0.0000   0.0000   0.0000   0.0000   0.0000
     0.0000   0.0000   0.0000   0.0000   0.0000   0.0000   0.0000   0.0000
     0.0000   0.0000   0.0000   0.0000   0.0000   0.0000   0.0000   0.0000
     0.0000   0.0000   0.0000   0.0000   0.0000   0.0000   0.0000   0.0000

          k = 0.3333 0.5774 0.0000 ( 59922 PWs)   bands (ev):

   -76.7250 -76.7250 -76.7250 -76.7250 -48.7778 -48.7778 -48.7778 -48.7778
   -47.7520 -47.7520 -47.7517 -47.7517 -47.7483 -47.7483 -47.7479 -47.7479
   -17.9286 -17.9286 -17.9274 -17.9274 -17.6340 -17.6340 -17.4608 -17.4608
   -17.4607 -17.4607 -17.3855 -17.3855  -9.6057  -9.6057  -9.5585  -9.5585
    -9.1447  -9.1447  -9.0613  -9.0613  -9.0115  -9.0115  -8.5976  -8.5976
    -8.3351  -8.3351  -8.3087  -8.3087  -7.8365  -7.8365  -7.7325  -7.7325
    -7.3456  -7.3456  -7.2287  -7.2287  -7.0185  -7.0185  -6.7919  -6.7919
    -6.7812  -6.7811  -6.5171  -6.5171  -6.3956  -6.3956  -6.2938  -6.2938
    -5.0234  -5.0234  -5.0029  -5.0029  -4.9830  -4.9830  -4.9173  -4.9173
    -4.7248  -4.7248  -4.6923  -4.6923  -3.6973  -3.6973  -3.5451  -3.5451
    -3.5355  -3.5355  -3.3762  -3.3762  -0.5616  -0.5616  -0.5572  -0.5572
     0.0328   0.0328   0.3284   0.3284   0.3401   0.3401   0.7307   0.7307
     0.7357   0.7357   0.9101   0.9101   1.1221   1.1221   1.2782   1.2782
     1.2789   1.2789   1.4950   1.4950   2.0686   2.0686   2.0710   2.0710
     2.5321   2.5321   2.6706   2.6706   2.6821   2.6821   2.8100   2.8100
     3.1421   3.1421   3.7366   3.7366   3.7631   3.7631   4.1645   4.1645
     4.1987   4.1987   4.2586   4.2586   4.6927   4.6927   4.7143   4.7143
     4.7866   4.7866   5.1996   5.1996   5.2096   5.2096   5.3393   5.3393
     5.7511   5.7511   5.8503   5.8503   5.8715   5.8715   5.8999   5.8999
     6.1018   6.1018   6.1188   6.1188   6.2709   6.2709   6.2963   6.2963
     6.4558   6.4558   6.6736   6.6736   6.7033   6.7033   6.7890   6.7890
     6.8332   6.8332   7.0448   7.0448   7.0852   7.0852   7.4182   7.4182
     7.4927   7.4927   7.4941   7.4941   7.6400   7.6400   7.7868   7.7868
     7.7936   7.7936   8.0184   8.0184   8.0302   8.0302   8.5150   8.5150
     9.3149   9.3149   9.3183   9.3183   9.3874   9.3874   9.5761   9.5761
     9.6062   9.6062   9.6170   9.6170   9.6299   9.6299   9.8272   9.8272
     9.8333   9.8333  10.1540  10.1540  10.1574  10.1574  10.2321  10.2321
    10.3018  10.3018  10.3132  10.3132  10.4114  10.4114  10.9304  10.9304
    10.9939  10.9939  11.0058  11.0058  11.0847  11.0847  11.0849  11.0849
    11.1755  11.1755  11.6351  11.6351  11.6894  11.6894  11.6916  11.6916
    12.0110  12.0110  12.0251  12.0251  12.0768  12.0768  12.2098  12.2099
    12.2197  12.2197  12.5689  12.5689  12.5874  12.5874  12.6012  12.6012
    12.6418  12.6418  12.9349  12.9349  12.9826  12.9826  13.0052  13.0052
    13.1329  13.1329  13.1867  13.1867  13.1946  13.1946  13.4972  13.4972
    13.5013  13.5013  13.5217  13.5217  13.6529  13.6529  13.6554  13.6554
    13.9719  13.9719  14.0012  14.0012  14.0180  14.0180  14.0709  14.0709
    14.1271  14.1271  14.1946  14.1946  14.2389  14.2389  14.4340  14.4340
    14.4371  14.4371  14.4899  14.4900  14.7094  14.7094  14.7867  14.7867
    14.7944  14.7944  15.0623  15.0623  15.0708  15.0708  15.1145  15.1145
    15.2680  15.2680  15.3190  15.3190  15.3401  15.3401  15.4835  15.4835
    15.4900  15.4900  15.4956  15.4956  15.6871  15.6871  15.7134  15.7135
    15.8764  15.8764  15.9379  15.9379  16.0010  16.0010  16.0073  16.0073
    16.2345  16.2345  16.2365  16.2365  16.2746  16.2746  16.8642  16.8642
    16.8668  16.8668  17.1651  17.1651  17.2955  17.2955  17.2960  17.2960
    17.3346  17.3346  17.5491  17.5491  17.5504  17.5504  17.7083  17.7083
    17.7591  17.7591  17.7613  17.7613  17.8152  17.8152  18.0579  18.0579
    18.0580  18.0580  18.1312  18.1312  18.1479  18.1479  18.1880  18.1880
    18.1922  18.1922  18.2788  18.2788  18.3676  18.3676  18.3798  18.3798
    18.7820  18.7820  18.8644  18.8644  18.8678  18.8678  18.9800  18.9800
    18.9803  18.9804  18.9862  18.9862  19.5117  19.5117  19.5255  19.5255
    19.5675  19.5675  19.5680  19.5680  19.6424  19.6424  19.6432  19.6432
    20.1418  20.1418  20.2476  20.2476  20.2607  20.2607  20.3008  20.3008
    20.3891  20.3891  20.3998  20.3998  20.4571  20.4571  20.5023  20.5023
    20.5473  20.5473  20.5584  20.5584  20.8801  20.8801  20.8816  20.8816
    21.0987  21.0987  21.1670  21.1670  21.1714  21.1714  21.4146  21.4146
    21.4204  21.4204  21.4754  21.4754  21.4806  21.4806  21.5552  21.5552
    21.7109  21.7109  21.7161  21.7161  21.8245  21.8245  21.8933  21.8933
    22.0394  22.0394  22.0424  22.0424  22.1185  22.1185  22.2642  22.2642
    22.4647  22.4647  22.5764  22.5764  22.5865  22.5865  22.7046  22.7046
    22.7130  22.7130  22.7760  22.7760  22.7795  22.7795  22.8398  22.8398
    22.8435  22.8435  22.8511  22.8511  23.1717  23.1717  23.2947  23.2947
    23.3056  23.3056  23.3069  23.3069  23.3534  23.3534  23.5351  23.5351
    23.5494  23.5494  23.8560  23.8560  23.9511  23.9511  24.0799  24.0799
    24.0847  24.0847  24.1649  24.1649  24.1762  24.1762  24.1965  24.1965
    24.2984  24.2984  24.3156  24.3156  24.3853  24.3853  24.3914  24.3914
    24.4425  24.4425  24.6730  24.6730  24.7308  24.7308  24.7511  24.7511
    24.8375  24.8375  24.9395  24.9395  25.0081  25.0081  25.0088  25.0088
    25.2247  25.2247  25.2266  25.2266  25.3667  25.3667  25.3771  25.3771
    25.3892  25.3892  25.5983  25.5983  25.6522  25.6522  25.6589  25.6589
    25.8588  25.8588  25.9331  25.9331  25.9524  25.9524  26.0006  26.0006
    26.0274  26.0274  26.0460  26.0460  26.0961  26.0961  26.1430  26.1430
    26.1438  26.1438  26.3897  26.3897  26.3908  26.3908  26.4095  26.4095
    26.4476  26.4476  26.4596  26.4596  26.4674  26.4674  26.6471  26.6471
    26.6490  26.6490  26.6585  26.6585  26.8893  26.8893  26.9000  26.9000
    26.9008  26.9008  27.0673  27.0673  27.0729  27.0729  27.1127  27.1127
    27.1676  27.1676  27.1999  27.1999  27.2056  27.2056  27.3339  27.3339
    27.3464  27.3464  27.3985  27.3985  27.4066  27.4066  27.5643  27.5643
    27.5660  27.5660  27.7845  27.7845  27.8484  27.8484  27.8501  27.8501
    28.0196  28.0196  28.1579  28.1579  28.1843  28.1843  28.1956  28.1956
    28.4121  28.4121  28.4160  28.4160  28.4161  28.4161  28.6143  28.6143
    28.6149  28.6149  28.7528  28.7528  28.8000  28.8000  28.8121  28.8121
    29.2128  29.2128  29.2365  29.2365  29.2427  29.2427  29.3844  29.3844
    29.3877  29.3877  29.4835  29.4835  29.5000  29.5000  29.5047  29.5047
    29.7767  29.7767  29.8141  29.8141  29.8192  29.8192  29.9137  29.9137
    29.9602  29.9602  29.9609  29.9609  30.4243  30.4243  30.4339  30.4339
    30.5048  30.5048  30.6703  30.6703  30.7305  30.7305  30.7426  30.7426
    30.7717  30.7717  30.7778  30.7778  30.8519  30.8519  30.8520  30.8520
    30.9659  30.9659  30.9667  30.9667  30.9766  30.9766  31.2016  31.2016
    31.2028  31.2028  31.2054  31.2054  31.2843  31.2843  31.2855  31.2855
    31.3763  31.3763  31.5461  31.5461  31.6580  31.6580  31.6699  31.6699
    31.6954  31.6954  31.6981  31.6981  31.7558  31.7558  31.7581  31.7581
    31.9465  31.9465  32.0846  32.0846  32.1594  32.1594  32.2122  32.2122
    32.2550  32.2550  32.2888  32.2888  32.3253  32.3253  32.3342  32.3342
    32.4226  32.4226  32.4281  32.4281  32.5605  32.5605  32.7891  32.7891
    32.7980  32.7980  32.8274  32.8274  32.8476  32.8476  32.9365  32.9365
    32.9491  32.9491  32.9588  32.9588  33.0303  33.0303  33.0659  33.0659
    33.0682  33.0682  33.1409  33.1409  33.1991  33.1991  33.2095  33.2095
    33.4288  33.4288  33.4385  33.4385  33.6091  33.6091  33.6095  33.6095
    33.6106  33.6106  33.7571  33.7571  33.8130  33.8130  33.8141  33.8141
    34.1273  34.1273  34.1747  34.1747  34.1870  34.1870  34.2105  34.2105

     occupation numbers 
     1.0000   1.0000   1.0000   1.0000   1.0000   1.0000   1.0000   1.0000
     1.0000   1.0000   1.0000   1.0000   1.0000   1.0000   1.0000   1.0000
     1.0000   1.0000   1.0000   1.0000   1.0000   1.0000   1.0000   1.0000
     1.0000   1.0000   1.0000   1.0000   1.0000   1.0000   1.0000   1.0000
     1.0000   1.0000   1.0000   1.0000   1.0000   1.0000   1.0000   1.0000
     1.0000   1.0000   1.0000   1.0000   1.0000   1.0000   1.0000   1.0000
     1.0000   1.0000   1.0000   1.0000   1.0000   1.0000   1.0000   1.0000
     1.0000   1.0000   1.0000   1.0000   1.0000   1.0000   1.0000   1.0000
     1.0000   1.0000   1.0000   1.0000   1.0000   1.0000   0.0000   0.0000
     0.0000   0.0000   0.0000   0.0000   0.0000   0.0000   0.0000   0.0000
     0.0000   0.0000   0.0000   0.0000   0.0000   0.0000   0.0000   0.0000
     0.0000   0.0000   0.0000   0.0000   0.0000   0.0000   0.0000   0.0000
     0.0000   0.0000   0.0000   0.0000   0.0000   0.0000   0.0000   0.0000
     0.0000   0.0000   0.0000   0.0000   0.0000   0.0000   0.0000   0.0000
     0.0000   0.0000   0.0000   0.0000   0.0000   0.0000   0.0000   0.0000
     0.0000   0.0000   0.0000   0.0000   0.0000   0.0000   0.0000   0.0000
     0.0000   0.0000   0.0000   0.0000   0.0000   0.0000   0.0000   0.0000
     0.0000   0.0000   0.0000   0.0000   0.0000   0.0000   0.0000   0.0000
     0.0000   0.0000   0.0000   0.0000   0.0000   0.0000   0.0000   0.0000
     0.0000   0.0000   0.0000   0.0000   0.0000   0.0000   0.0000   0.0000
     0.0000   0.0000   0.0000   0.0000   0.0000   0.0000   0.0000   0.0000
     0.0000   0.0000   0.0000   0.0000   0.0000   0.0000   0.0000   0.0000
     0.0000   0.0000   0.0000   0.0000   0.0000   0.0000   0.0000   0.0000
     0.0000   0.0000   0.0000   0.0000   0.0000   0.0000   0.0000   0.0000
     0.0000   0.0000   0.0000   0.0000   0.0000   0.0000   0.0000   0.0000
     0.0000   0.0000   0.0000   0.0000   0.0000   0.0000   0.0000   0.0000
     0.0000   0.0000   0.0000   0.0000   0.0000   0.0000   0.0000   0.0000
     0.0000   0.0000   0.0000   0.0000   0.0000   0.0000   0.0000   0.0000
     0.0000   0.0000   0.0000   0.0000   0.0000   0.0000   0.0000   0.0000
     0.0000   0.0000   0.0000   0.0000   0.0000   0.0000   0.0000   0.0000
     0.0000   0.0000   0.0000   0.0000   0.0000   0.0000   0.0000   0.0000
     0.0000   0.0000   0.0000   0.0000   0.0000   0.0000   0.0000   0.0000
     0.0000   0.0000   0.0000   0.0000   0.0000   0.0000   0.0000   0.0000
     0.0000   0.0000   0.0000   0.0000   0.0000   0.0000   0.0000   0.0000
     0.0000   0.0000   0.0000   0.0000   0.0000   0.0000   0.0000   0.0000
     0.0000   0.0000   0.0000   0.0000   0.0000   0.0000   0.0000   0.0000
     0.0000   0.0000   0.0000   0.0000   0.0000   0.0000   0.0000   0.0000
     0.0000   0.0000   0.0000   0.0000   0.0000   0.0000   0.0000   0.0000
     0.0000   0.0000   0.0000   0.0000   0.0000   0.0000   0.0000   0.0000
     0.0000   0.0000   0.0000   0.0000   0.0000   0.0000   0.0000   0.0000
     0.0000   0.0000   0.0000   0.0000   0.0000   0.0000   0.0000   0.0000
     0.0000   0.0000   0.0000   0.0000   0.0000   0.0000   0.0000   0.0000
     0.0000   0.0000   0.0000   0.0000   0.0000   0.0000   0.0000   0.0000
     0.0000   0.0000   0.0000   0.0000   0.0000   0.0000   0.0000   0.0000
     0.0000   0.0000   0.0000   0.0000   0.0000   0.0000   0.0000   0.0000
     0.0000   0.0000   0.0000   0.0000   0.0000   0.0000   0.0000   0.0000
     0.0000   0.0000   0.0000   0.0000   0.0000   0.0000   0.0000   0.0000
     0.0000   0.0000   0.0000   0.0000   0.0000   0.0000   0.0000   0.0000
     0.0000   0.0000   0.0000   0.0000   0.0000   0.0000   0.0000   0.0000
     0.0000   0.0000   0.0000   0.0000   0.0000   0.0000   0.0000   0.0000
     0.0000   0.0000   0.0000   0.0000   0.0000   0.0000   0.0000   0.0000
     0.0000   0.0000   0.0000   0.0000   0.0000   0.0000   0.0000   0.0000
     0.0000   0.0000   0.0000   0.0000   0.0000   0.0000   0.0000   0.0000
     0.0000   0.0000   0.0000   0.0000   0.0000   0.0000   0.0000   0.0000
     0.0000   0.0000   0.0000   0.0000   0.0000   0.0000   0.0000   0.0000
     0.0000   0.0000   0.0000   0.0000   0.0000   0.0000   0.0000   0.0000
     0.0000   0.0000   0.0000   0.0000   0.0000   0.0000   0.0000   0.0000
     0.0000   0.0000   0.0000   0.0000   0.0000   0.0000   0.0000   0.0000
     0.0000   0.0000   0.0000   0.0000   0.0000   0.0000   0.0000   0.0000
     0.0000   0.0000   0.0000   0.0000   0.0000   0.0000   0.0000   0.0000
     0.0000   0.0000   0.0000   0.0000   0.0000   0.0000   0.0000   0.0000
     0.0000   0.0000   0.0000   0.0000   0.0000   0.0000   0.0000   0.0000
     0.0000   0.0000   0.0000   0.0000   0.0000   0.0000   0.0000   0.0000
     0.0000   0.0000   0.0000   0.0000   0.0000   0.0000   0.0000   0.0000
     0.0000   0.0000   0.0000   0.0000   0.0000   0.0000   0.0000   0.0000
     0.0000   0.0000   0.0000   0.0000   0.0000   0.0000   0.0000   0.0000
     0.0000   0.0000   0.0000   0.0000   0.0000   0.0000   0.0000   0.0000
     0.0000   0.0000   0.0000   0.0000   0.0000   0.0000   0.0000   0.0000
     0.0000   0.0000   0.0000   0.0000   0.0000   0.0000   0.0000   0.0000
     0.0000   0.0000   0.0000   0.0000   0.0000   0.0000   0.0000   0.0000
     0.0000   0.0000   0.0000   0.0000   0.0000   0.0000   0.0000   0.0000
     0.0000   0.0000   0.0000   0.0000   0.0000   0.0000   0.0000   0.0000
     0.0000   0.0000   0.0000   0.0000   0.0000   0.0000   0.0000   0.0000
     0.0000   0.0000   0.0000   0.0000   0.0000   0.0000   0.0000   0.0000
     0.0000   0.0000   0.0000   0.0000   0.0000   0.0000   0.0000   0.0000
     0.0000   0.0000   0.0000   0.0000   0.0000   0.0000   0.0000   0.0000
     0.0000   0.0000   0.0000   0.0000   0.0000   0.0000   0.0000   0.0000
     0.0000   0.0000   0.0000   0.0000   0.0000   0.0000   0.0000   0.0000
     0.0000   0.0000   0.0000   0.0000   0.0000   0.0000   0.0000   0.0000
     0.0000   0.0000   0.0000   0.0000   0.0000   0.0000   0.0000   0.0000
     0.0000   0.0000   0.0000   0.0000   0.0000   0.0000   0.0000   0.0000
     0.0000   0.0000   0.0000   0.0000   0.0000   0.0000   0.0000   0.0000
     0.0000   0.0000   0.0000   0.0000   0.0000   0.0000   0.0000   0.0000
     0.0000   0.0000   0.0000   0.0000   0.0000   0.0000   0.0000   0.0000
     0.0000   0.0000   0.0000   0.0000   0.0000   0.0000   0.0000   0.0000
     0.0000   0.0000   0.0000   0.0000   0.0000   0.0000   0.0000   0.0000
     0.0000   0.0000   0.0000   0.0000   0.0000   0.0000   0.0000   0.0000
     0.0000   0.0000   0.0000   0.0000   0.0000   0.0000   0.0000   0.0000
     0.0000   0.0000   0.0000   0.0000   0.0000   0.0000   0.0000   0.0000
     0.0000   0.0000   0.0000   0.0000   0.0000   0.0000   0.0000   0.0000
     0.0000   0.0000   0.0000   0.0000   0.0000   0.0000   0.0000   0.0000
     0.0000   0.0000   0.0000   0.0000   0.0000   0.0000   0.0000   0.0000
     0.0000   0.0000   0.0000   0.0000   0.0000   0.0000   0.0000   0.0000
     0.0000   0.0000   0.0000   0.0000   0.0000   0.0000   0.0000   0.0000
     0.0000   0.0000   0.0000   0.0000   0.0000   0.0000   0.0000   0.0000
     0.0000   0.0000   0.0000   0.0000   0.0000   0.0000   0.0000   0.0000
     0.0000   0.0000   0.0000   0.0000   0.0000   0.0000   0.0000   0.0000
     0.0000   0.0000   0.0000   0.0000   0.0000   0.0000   0.0000   0.0000
     0.0000   0.0000   0.0000   0.0000   0.0000   0.0000   0.0000   0.0000
     0.0000   0.0000   0.0000   0.0000   0.0000   0.0000   0.0000   0.0000

          k =-0.1667 0.4811 0.0000 ( 59892 PWs)   bands (ev):

   -76.7250 -76.7250 -76.7249 -76.7249 -48.7781 -48.7781 -48.7776 -48.7776
   -47.7524 -47.7524 -47.7513 -47.7513 -47.7482 -47.7482 -47.7480 -47.7480
   -18.0937 -18.0937 -17.7989 -17.7989 -17.5689 -17.5689 -17.5335 -17.5335
   -17.4191 -17.4191 -17.3656 -17.3656  -9.8575  -9.8575  -9.4550  -9.4550
    -9.2312  -9.2312  -9.0623  -9.0622  -8.8970  -8.8970  -8.5266  -8.5266
    -8.3180  -8.3180  -8.0501  -8.0501  -7.8567  -7.8567  -7.7049  -7.7049
    -7.5395  -7.5395  -7.2844  -7.2844  -7.1031  -7.1031  -6.8937  -6.8937
    -6.7793  -6.7793  -6.5606  -6.5606  -6.3623  -6.3623  -6.1376  -6.1376
    -5.1288  -5.1288  -5.0286  -5.0286  -4.9440  -4.9440  -4.8482  -4.8482
    -4.7402  -4.7402  -4.6699  -4.6699  -3.7113  -3.7113  -3.5964  -3.5964
    -3.5406  -3.5406  -3.4402  -3.4402  -0.6585  -0.6585  -0.1386  -0.1386
     0.1641   0.1641   0.3140   0.3140   0.5428   0.5428   0.5757   0.5757
     0.8699   0.8699   1.0377   1.0377   1.1667   1.1667   1.3816   1.3816
     1.5010   1.5010   1.8849   1.8849   2.1044   2.1044   2.1826   2.1826
     2.4268   2.4268   2.6376   2.6376   2.6880   2.6880   3.1104   3.1104
     3.1804   3.1804   3.3065   3.3065   3.4040   3.4040   3.6824   3.6824
     3.8032   3.8032   3.9922   3.9922   4.0448   4.0448   4.3666   4.3666
     4.6434   4.6434   4.8735   4.8735   5.1579   5.1579   5.3447   5.3447
     5.4788   5.4788   5.5020   5.5020   5.6634   5.6634   5.7236   5.7236
     6.0096   6.0096   6.1799   6.1799   6.2496   6.2496   6.3575   6.3575
     6.6335   6.6335   6.6985   6.6985   7.0035   7.0035   7.1405   7.1405
     7.2884   7.2884   7.3614   7.3614   7.4915   7.4915   7.6466   7.6466
     7.7045   7.7045   7.8657   7.8657   8.0366   8.0366   8.1855   8.1855
     8.2961   8.2961   8.6190   8.6190   8.7336   8.7336   8.8490   8.8490
     8.8748   8.8748   9.0272   9.0272   9.1882   9.1882   9.2944   9.2944
     9.4195   9.4195   9.5780   9.5780   9.5991   9.5991   9.6611   9.6611
     9.8024   9.8024   9.8688   9.8688   9.9392   9.9392  10.0899  10.0899
    10.2098  10.2098  10.4185  10.4185  10.6157  10.6157  10.7337  10.7337
    10.9050  10.9050  10.9834  10.9834  11.0400  11.0400  11.2089  11.2089
    11.3055  11.3055  11.3533  11.3533  11.5806  11.5806  11.6035  11.6035
    11.6374  11.6374  11.7308  11.7308  11.8459  11.8459  11.9764  11.9764
    12.1493  12.1493  12.2657  12.2657  12.3299  12.3299  12.3773  12.3773
    12.4599  12.4599  12.5300  12.5300  12.6787  12.6787  12.8468  12.8468
    13.0342  13.0342  13.0741  13.0741  13.2391  13.2391  13.2779  13.2779
    13.3699  13.3699  13.4107  13.4107  13.5223  13.5223  13.6216  13.6216
    13.7216  13.7216  13.7965  13.7965  13.8772  13.8772  13.9949  13.9949
    14.1201  14.1201  14.2091  14.2091  14.3338  14.3338  14.5250  14.5250
    14.6074  14.6074  14.8380  14.8380  14.9158  14.9158  14.9712  14.9712
    15.1329  15.1329  15.1839  15.1839  15.2731  15.2731  15.3542  15.3542
    15.5072  15.5072  15.5566  15.5566  15.6361  15.6361  15.7685  15.7685
    15.8355  15.8355  16.0514  16.0514  16.0662  16.0662  16.1250  16.1250
    16.2723  16.2723  16.3250  16.3250  16.4280  16.4280  16.4845  16.4845
    16.5122  16.5122  16.6121  16.6121  16.6655  16.6655  16.7850  16.7850
    16.9583  16.9583  17.0286  17.0286  17.1163  17.1163  17.2034  17.2034
    17.2778  17.2778  17.3378  17.3378  17.4436  17.4436  17.5740  17.5740
    17.6338  17.6338  17.7733  17.7733  17.8477  17.8477  17.8594  17.8594
    17.9876  17.9876  17.9967  17.9967  18.0335  18.0335  18.2086  18.2086
    18.2454  18.2454  18.2864  18.2864  18.6290  18.6290  18.6486  18.6486
    18.7915  18.7915  18.8617  18.8617  19.0137  19.0137  19.0888  19.0888
    19.2002  19.2002  19.2738  19.2738  19.3468  19.3468  19.4464  19.4464
    19.5318  19.5318  19.5976  19.5976  19.6491  19.6491  19.7559  19.7559
    19.8810  19.8810  19.9716  19.9716  20.0629  20.0629  20.1290  20.1290
    20.2673  20.2673  20.4183  20.4183  20.4594  20.4594  20.5943  20.5943
    20.6439  20.6439  20.7198  20.7198  20.7985  20.7985  20.8654  20.8654
    20.8948  20.8948  20.9785  20.9785  21.1371  21.1371  21.1622  21.1622
    21.2280  21.2280  21.3256  21.3256  21.4743  21.4743  21.6218  21.6218
    21.6807  21.6807  21.7521  21.7521  21.8265  21.8265  21.8533  21.8533
    21.9327  21.9327  22.0685  22.0685  22.0981  22.0981  22.1464  22.1464
    22.1903  22.1903  22.2818  22.2818  22.4315  22.4315  22.4805  22.4805
    22.6068  22.6068  22.6687  22.6687  22.8220  22.8220  22.9118  22.9118
    23.0032  23.0032  23.0661  23.0661  23.1485  23.1485  23.1886  23.1886
    23.2569  23.2569  23.2732  23.2732  23.3803  23.3803  23.4128  23.4128
    23.5008  23.5008  23.5708  23.5708  23.6834  23.6834  23.7610  23.7610
    23.8048  23.8048  23.8892  23.8892  23.9788  23.9788  24.0179  24.0179
    24.1535  24.1535  24.1913  24.1913  24.2145  24.2145  24.3027  24.3027
    24.4278  24.4278  24.4612  24.4612  24.4941  24.4941  24.6138  24.6138
    24.7287  24.7287  24.8115  24.8115  24.8808  24.8808  24.9174  24.9174
    24.9971  24.9971  25.0506  25.0506  25.1007  25.1007  25.2131  25.2131
    25.2886  25.2886  25.3322  25.3322  25.4716  25.4716  25.5649  25.5649
    25.6710  25.6710  25.7035  25.7036  25.7284  25.7284  25.8164  25.8164
    25.8983  25.8983  25.9138  25.9138  25.9331  25.9331  26.0625  26.0625
    26.2215  26.2215  26.3175  26.3175  26.3398  26.3398  26.3625  26.3625
    26.5407  26.5407  26.5879  26.5879  26.6384  26.6384  26.7357  26.7357
    26.8259  26.8259  26.9333  26.9333  27.0176  27.0176  27.0995  27.0995
    27.2357  27.2357  27.2872  27.2872  27.3179  27.3179  27.3898  27.3898
    27.4280  27.4280  27.5013  27.5013  27.6392  27.6392  27.7147  27.7147
    27.7974  27.7974  27.8326  27.8326  27.9381  27.9381  27.9565  27.9565
    28.0537  28.0537  28.1662  28.1662  28.3499  28.3499  28.3828  28.3828
    28.4639  28.4639  28.4763  28.4763  28.5037  28.5037  28.5630  28.5630
    28.6423  28.6423  28.6559  28.6559  28.7402  28.7402  28.8154  28.8154
    28.8493  28.8493  28.9236  28.9236  28.9767  28.9767  29.0447  29.0447
    29.1108  29.1108  29.1670  29.1670  29.2486  29.2486  29.3768  29.3768
    29.4853  29.4853  29.5248  29.5248  29.5742  29.5742  29.6322  29.6322
    29.6606  29.6606  29.7498  29.7498  29.7854  29.7854  29.8305  29.8305
    29.8636  29.8636  29.8970  29.8970  29.9142  29.9142  30.0783  30.0783
    30.1630  30.1630  30.2000  30.2000  30.3124  30.3124  30.3555  30.3555
    30.4416  30.4416  30.5350  30.5350  30.5546  30.5546  30.6712  30.6712
    30.7174  30.7174  30.7570  30.7570  30.8892  30.8892  30.9679  30.9679
    31.0174  31.0174  31.1069  31.1069  31.1652  31.1652  31.2555  31.2555
    31.2788  31.2788  31.3769  31.3769  31.4405  31.4405  31.4918  31.4918
    31.5815  31.5815  31.6608  31.6608  31.6955  31.6955  31.7162  31.7162
    31.8118  31.8118  31.8429  31.8429  31.9334  31.9334  32.0327  32.0327
    32.0618  32.0618  32.1280  32.1280  32.1870  32.1870  32.2087  32.2087
    32.3546  32.3546  32.3885  32.3885  32.5305  32.5305  32.5599  32.5599
    32.6258  32.6258  32.6884  32.6884  32.7540  32.7540  32.8790  32.8790
    32.9709  32.9709  33.0099  33.0099  33.0930  33.0930  33.1948  33.1948
    33.2769  33.2769  33.4290  33.4290  33.4558  33.4558  33.5132  33.5132
    33.5689  33.5689  33.6475  33.6475  33.6832  33.6832  33.7706  33.7706
    33.8127  33.8127  33.8406  33.8406  33.8910  33.8910  33.9469  33.9469
    34.0092  34.0092  34.1050  34.1050  34.1860  34.1860  34.2592  34.2592

     occupation numbers 
     1.0000   1.0000   1.0000   1.0000   1.0000   1.0000   1.0000   1.0000
     1.0000   1.0000   1.0000   1.0000   1.0000   1.0000   1.0000   1.0000
     1.0000   1.0000   1.0000   1.0000   1.0000   1.0000   1.0000   1.0000
     1.0000   1.0000   1.0000   1.0000   1.0000   1.0000   1.0000   1.0000
     1.0000   1.0000   1.0000   1.0000   1.0000   1.0000   1.0000   1.0000
     1.0000   1.0000   1.0000   1.0000   1.0000   1.0000   1.0000   1.0000
     1.0000   1.0000   1.0000   1.0000   1.0000   1.0000   1.0000   1.0000
     1.0000   1.0000   1.0000   1.0000   1.0000   1.0000   1.0000   1.0000
     1.0000   1.0000   1.0000   1.0000   1.0000   1.0000   0.0000   0.0000
     0.0000   0.0000   0.0000   0.0000   0.0000   0.0000   0.0000   0.0000
     0.0000   0.0000   0.0000   0.0000   0.0000   0.0000   0.0000   0.0000
     0.0000   0.0000   0.0000   0.0000   0.0000   0.0000   0.0000   0.0000
     0.0000   0.0000   0.0000   0.0000   0.0000   0.0000   0.0000   0.0000
     0.0000   0.0000   0.0000   0.0000   0.0000   0.0000   0.0000   0.0000
     0.0000   0.0000   0.0000   0.0000   0.0000   0.0000   0.0000   0.0000
     0.0000   0.0000   0.0000   0.0000   0.0000   0.0000   0.0000   0.0000
     0.0000   0.0000   0.0000   0.0000   0.0000   0.0000   0.0000   0.0000
     0.0000   0.0000   0.0000   0.0000   0.0000   0.0000   0.0000   0.0000
     0.0000   0.0000   0.0000   0.0000   0.0000   0.0000   0.0000   0.0000
     0.0000   0.0000   0.0000   0.0000   0.0000   0.0000   0.0000   0.0000
     0.0000   0.0000   0.0000   0.0000   0.0000   0.0000   0.0000   0.0000
     0.0000   0.0000   0.0000   0.0000   0.0000   0.0000   0.0000   0.0000
     0.0000   0.0000   0.0000   0.0000   0.0000   0.0000   0.0000   0.0000
     0.0000   0.0000   0.0000   0.0000   0.0000   0.0000   0.0000   0.0000
     0.0000   0.0000   0.0000   0.0000   0.0000   0.0000   0.0000   0.0000
     0.0000   0.0000   0.0000   0.0000   0.0000   0.0000   0.0000   0.0000
     0.0000   0.0000   0.0000   0.0000   0.0000   0.0000   0.0000   0.0000
     0.0000   0.0000   0.0000   0.0000   0.0000   0.0000   0.0000   0.0000
     0.0000   0.0000   0.0000   0.0000   0.0000   0.0000   0.0000   0.0000
     0.0000   0.0000   0.0000   0.0000   0.0000   0.0000   0.0000   0.0000
     0.0000   0.0000   0.0000   0.0000   0.0000   0.0000   0.0000   0.0000
     0.0000   0.0000   0.0000   0.0000   0.0000   0.0000   0.0000   0.0000
     0.0000   0.0000   0.0000   0.0000   0.0000   0.0000   0.0000   0.0000
     0.0000   0.0000   0.0000   0.0000   0.0000   0.0000   0.0000   0.0000
     0.0000   0.0000   0.0000   0.0000   0.0000   0.0000   0.0000   0.0000
     0.0000   0.0000   0.0000   0.0000   0.0000   0.0000   0.0000   0.0000
     0.0000   0.0000   0.0000   0.0000   0.0000   0.0000   0.0000   0.0000
     0.0000   0.0000   0.0000   0.0000   0.0000   0.0000   0.0000   0.0000
     0.0000   0.0000   0.0000   0.0000   0.0000   0.0000   0.0000   0.0000
     0.0000   0.0000   0.0000   0.0000   0.0000   0.0000   0.0000   0.0000
     0.0000   0.0000   0.0000   0.0000   0.0000   0.0000   0.0000   0.0000
     0.0000   0.0000   0.0000   0.0000   0.0000   0.0000   0.0000   0.0000
     0.0000   0.0000   0.0000   0.0000   0.0000   0.0000   0.0000   0.0000
     0.0000   0.0000   0.0000   0.0000   0.0000   0.0000   0.0000   0.0000
     0.0000   0.0000   0.0000   0.0000   0.0000   0.0000   0.0000   0.0000
     0.0000   0.0000   0.0000   0.0000   0.0000   0.0000   0.0000   0.0000
     0.0000   0.0000   0.0000   0.0000   0.0000   0.0000   0.0000   0.0000
     0.0000   0.0000   0.0000   0.0000   0.0000   0.0000   0.0000   0.0000
     0.0000   0.0000   0.0000   0.0000   0.0000   0.0000   0.0000   0.0000
     0.0000   0.0000   0.0000   0.0000   0.0000   0.0000   0.0000   0.0000
     0.0000   0.0000   0.0000   0.0000   0.0000   0.0000   0.0000   0.0000
     0.0000   0.0000   0.0000   0.0000   0.0000   0.0000   0.0000   0.0000
     0.0000   0.0000   0.0000   0.0000   0.0000   0.0000   0.0000   0.0000
     0.0000   0.0000   0.0000   0.0000   0.0000   0.0000   0.0000   0.0000
     0.0000   0.0000   0.0000   0.0000   0.0000   0.0000   0.0000   0.0000
     0.0000   0.0000   0.0000   0.0000   0.0000   0.0000   0.0000   0.0000
     0.0000   0.0000   0.0000   0.0000   0.0000   0.0000   0.0000   0.0000
     0.0000   0.0000   0.0000   0.0000   0.0000   0.0000   0.0000   0.0000
     0.0000   0.0000   0.0000   0.0000   0.0000   0.0000   0.0000   0.0000
     0.0000   0.0000   0.0000   0.0000   0.0000   0.0000   0.0000   0.0000
     0.0000   0.0000   0.0000   0.0000   0.0000   0.0000   0.0000   0.0000
     0.0000   0.0000   0.0000   0.0000   0.0000   0.0000   0.0000   0.0000
     0.0000   0.0000   0.0000   0.0000   0.0000   0.0000   0.0000   0.0000
     0.0000   0.0000   0.0000   0.0000   0.0000   0.0000   0.0000   0.0000
     0.0000   0.0000   0.0000   0.0000   0.0000   0.0000   0.0000   0.0000
     0.0000   0.0000   0.0000   0.0000   0.0000   0.0000   0.0000   0.0000
     0.0000   0.0000   0.0000   0.0000   0.0000   0.0000   0.0000   0.0000
     0.0000   0.0000   0.0000   0.0000   0.0000   0.0000   0.0000   0.0000
     0.0000   0.0000   0.0000   0.0000   0.0000   0.0000   0.0000   0.0000
     0.0000   0.0000   0.0000   0.0000   0.0000   0.0000   0.0000   0.0000
     0.0000   0.0000   0.0000   0.0000   0.0000   0.0000   0.0000   0.0000
     0.0000   0.0000   0.0000   0.0000   0.0000   0.0000   0.0000   0.0000
     0.0000   0.0000   0.0000   0.0000   0.0000   0.0000   0.0000   0.0000
     0.0000   0.0000   0.0000   0.0000   0.0000   0.0000   0.0000   0.0000
     0.0000   0.0000   0.0000   0.0000   0.0000   0.0000   0.0000   0.0000
     0.0000   0.0000   0.0000   0.0000   0.0000   0.0000   0.0000   0.0000
     0.0000   0.0000   0.0000   0.0000   0.0000   0.0000   0.0000   0.0000
     0.0000   0.0000   0.0000   0.0000   0.0000   0.0000   0.0000   0.0000
     0.0000   0.0000   0.0000   0.0000   0.0000   0.0000   0.0000   0.0000
     0.0000   0.0000   0.0000   0.0000   0.0000   0.0000   0.0000   0.0000
     0.0000   0.0000   0.0000   0.0000   0.0000   0.0000   0.0000   0.0000
     0.0000   0.0000   0.0000   0.0000   0.0000   0.0000   0.0000   0.0000
     0.0000   0.0000   0.0000   0.0000   0.0000   0.0000   0.0000   0.0000
     0.0000   0.0000   0.0000   0.0000   0.0000   0.0000   0.0000   0.0000
     0.0000   0.0000   0.0000   0.0000   0.0000   0.0000   0.0000   0.0000
     0.0000   0.0000   0.0000   0.0000   0.0000   0.0000   0.0000   0.0000
     0.0000   0.0000   0.0000   0.0000   0.0000   0.0000   0.0000   0.0000
     0.0000   0.0000   0.0000   0.0000   0.0000   0.0000   0.0000   0.0000
     0.0000   0.0000   0.0000   0.0000   0.0000   0.0000   0.0000   0.0000
     0.0000   0.0000   0.0000   0.0000   0.0000   0.0000   0.0000   0.0000
     0.0000   0.0000   0.0000   0.0000   0.0000   0.0000   0.0000   0.0000
     0.0000   0.0000   0.0000   0.0000   0.0000   0.0000   0.0000   0.0000
     0.0000   0.0000   0.0000   0.0000   0.0000   0.0000   0.0000   0.0000
     0.0000   0.0000   0.0000   0.0000   0.0000   0.0000   0.0000   0.0000
     0.0000   0.0000   0.0000   0.0000   0.0000   0.0000   0.0000   0.0000
     0.0000   0.0000   0.0000   0.0000   0.0000   0.0000   0.0000   0.0000
     0.0000   0.0000   0.0000   0.0000   0.0000   0.0000   0.0000   0.0000
     0.0000   0.0000   0.0000   0.0000   0.0000   0.0000   0.0000   0.0000
     0.0000   0.0000   0.0000   0.0000   0.0000   0.0000   0.0000   0.0000
     0.0000   0.0000   0.0000   0.0000   0.0000   0.0000   0.0000   0.0000

     highest occupied, lowest unoccupied level (ev):    -4.9020   -4.9267

     Writing all to output data dir ./CrI3.save/ :
     XML data file, pseudopotentials, collected wavefunctions
 
     init_run     :      0.60s CPU      1.55s WALL (       1 calls)
     electrons    :     20.95s CPU     23.22s WALL (       1 calls)

     Called by init_run:
     wfcinit      :      0.00s CPU      0.00s WALL (       1 calls)
     wfcinit:atom :      0.00s CPU      0.00s WALL (       1 calls)
     wfcinit:wfcr :      0.72s CPU      1.18s WALL (       1 calls)
     potinit      :      0.13s CPU      0.21s WALL (       1 calls)
     hinit0       :      0.30s CPU      0.74s WALL (       1 calls)

     Called by electrons:
     c_bands      :     20.62s CPU     22.89s WALL (       1 calls)
     v_of_rho     :      0.02s CPU      0.03s WALL (       1 calls)
     v_h          :      0.00s CPU      0.01s WALL (       1 calls)
     v_xc         :      0.02s CPU      0.02s WALL (       1 calls)

     Called by c_bands:
     init_us_2    :      0.00s CPU      0.00s WALL (       1 calls)
     cegterg      :     18.21s CPU     18.42s WALL (       2 calls)

     Called by sum_band:

     Called by *egterg:
     cdiaghg      :      3.46s CPU      3.95s WALL (      38 calls)
                                        3.95s GPU  (      38 calls)
     cegterg:over :      2.87s CPU      2.87s WALL (      37 calls)
     cegterg:upda :      1.98s CPU      1.98s WALL (      37 calls)
     cegterg:last :      1.16s CPU      1.16s WALL (       6 calls)
     h_psi        :      9.10s CPU      9.28s WALL (      40 calls)
     g_psi        :      0.03s CPU      0.03s WALL (      37 calls)

     Called by h_psi:
     h_psi:calbec :      0.04s CPU      0.15s WALL (      40 calls)
     vloc_psi     :      8.78s CPU      8.85s WALL (      40 calls)
                                        8.85s GPU  (      40 calls)
     add_vuspsi   :      0.25s CPU      0.25s WALL (      40 calls)

     General routines
     calbec       :      0.04s CPU      0.15s WALL (      40 calls)
     fft          :      0.07s CPU      0.58s WALL (      14 calls)
                                        0.58s GPU  (      14 calls)
     fftw         :      0.58s CPU      5.97s WALL (   54480 calls)
                                        5.61s GPU  (   54480 calls)
 
     Parallel routines
 
     PWSCF        :     22.26s CPU     27.73s WALL

 
   This run was terminated on:  22: 1: 4  15Jun2026            

=------------------------------------------------------------------------------=
   JOB DONE.
=------------------------------------------------------------------------------=
