&control
   prefix = 'silicon'
   pseudo_dir = './'
   calculation = 'nscf'
/
&system
   ecutwfc = 25.0
   ibrav = 0
   nat = 2
   ntyp = 1
   noncolin = .true.
   lspinorb = .true.
   no_t_rev = .true.
   nosym = .true.
   nbnd = 62
/
&electrons
   electron_maxstep = 200
   conv_thr = 1.0d-10
   mixing_mode = 'plain'
   mixing_beta = 0.7
   mixing_ndim = 8
   diagonalization = 'david'
   diago_david_ndim = 4
   diago_full_acc = .true.
/

ATOMIC_SPECIES
   Si 28.085 'Si.upf'

CELL_PARAMETERS angstrom
   2.715 2.715 0.000
   0.000 2.715 2.715
   2.715 0.000 2.715

ATOMIC_POSITIONS crystal
   Si -0.125 -0.125 -0.125
   Si  0.125  0.125  0.125

K_POINTS crystal
   1000
  0.000100000  0.000000000  0.000000000   1.0
  0.000100000  0.000000000  0.100000000   1.0
  0.000100000  0.000000000  0.200000000   1.0
  0.000100000  0.000000000  0.300000000   1.0
  0.000100000  0.000000000  0.400000000   1.0
  0.000100000  0.000000000  0.500000000   1.0
  0.000100000  0.000000000  0.600000000   1.0
  0.000100000  0.000000000  0.700000000   1.0
  0.000100000  0.000000000  0.800000000   1.0
  0.000100000  0.000000000  0.900000000   1.0
  0.000100000  0.100000000  0.000000000   1.0
  0.000100000  0.100000000  0.100000000   1.0
  0.000100000  0.100000000  0.200000000   1.0
  0.000100000  0.100000000  0.300000000   1.0
  0.000100000  0.100000000  0.400000000   1.0
  0.000100000  0.100000000  0.500000000   1.0
  0.000100000  0.100000000  0.600000000   1.0
  0.000100000  0.100000000  0.700000000   1.0
  0.000100000  0.100000000  0.800000000   1.0
  0.000100000  0.100000000  0.900000000   1.0
  0.000100000  0.200000000  0.000000000   1.0
  0.000100000  0.200000000  0.100000000   1.0
  0.000100000  0.200000000  0.200000000   1.0
  0.000100000  0.200000000  0.300000000   1.0
  0.000100000  0.200000000  0.400000000   1.0
  0.000100000  0.200000000  0.500000000   1.0
  0.000100000  0.200000000  0.600000000   1.0
  0.000100000  0.200000000  0.700000000   1.0
  0.000100000  0.200000000  0.800000000   1.0
  0.000100000  0.200000000  0.900000000   1.0
  0.000100000  0.300000000  0.000000000   1.0
  0.000100000  0.300000000  0.100000000   1.0
  0.000100000  0.300000000  0.200000000   1.0
  0.000100000  0.300000000  0.300000000   1.0
  0.000100000  0.300000000  0.400000000   1.0
  0.000100000  0.300000000  0.500000000   1.0
  0.000100000  0.300000000  0.600000000   1.0
  0.000100000  0.300000000  0.700000000   1.0
  0.000100000  0.300000000  0.800000000   1.0
  0.000100000  0.300000000  0.900000000   1.0
  0.000100000  0.400000000  0.000000000   1.0
  0.000100000  0.400000000  0.100000000   1.0
  0.000100000  0.400000000  0.200000000   1.0
  0.000100000  0.400000000  0.300000000   1.0
  0.000100000  0.400000000  0.400000000   1.0
  0.000100000  0.400000000  0.500000000   1.0
  0.000100000  0.400000000  0.600000000   1.0
  0.000100000  0.400000000  0.700000000   1.0
  0.000100000  0.400000000  0.800000000   1.0
  0.000100000  0.400000000  0.900000000   1.0
  0.000100000  0.500000000  0.000000000   1.0
  0.000100000  0.500000000  0.100000000   1.0
  0.000100000  0.500000000  0.200000000   1.0
  0.000100000  0.500000000  0.300000000   1.0
  0.000100000  0.500000000  0.400000000   1.0
  0.000100000  0.500000000  0.500000000   1.0
  0.000100000  0.500000000  0.600000000   1.0
  0.000100000  0.500000000  0.700000000   1.0
  0.000100000  0.500000000  0.800000000   1.0
  0.000100000  0.500000000  0.900000000   1.0
  0.000100000  0.600000000  0.000000000   1.0
  0.000100000  0.600000000  0.100000000   1.0
  0.000100000  0.600000000  0.200000000   1.0
  0.000100000  0.600000000  0.300000000   1.0
  0.000100000  0.600000000  0.400000000   1.0
  0.000100000  0.600000000  0.500000000   1.0
  0.000100000  0.600000000  0.600000000   1.0
  0.000100000  0.600000000  0.700000000   1.0
  0.000100000  0.600000000  0.800000000   1.0
  0.000100000  0.600000000  0.900000000   1.0
  0.000100000  0.700000000  0.000000000   1.0
  0.000100000  0.700000000  0.100000000   1.0
  0.000100000  0.700000000  0.200000000   1.0
  0.000100000  0.700000000  0.300000000   1.0
  0.000100000  0.700000000  0.400000000   1.0
  0.000100000  0.700000000  0.500000000   1.0
  0.000100000  0.700000000  0.600000000   1.0
  0.000100000  0.700000000  0.700000000   1.0
  0.000100000  0.700000000  0.800000000   1.0
  0.000100000  0.700000000  0.900000000   1.0
  0.000100000  0.800000000  0.000000000   1.0
  0.000100000  0.800000000  0.100000000   1.0
  0.000100000  0.800000000  0.200000000   1.0
  0.000100000  0.800000000  0.300000000   1.0
  0.000100000  0.800000000  0.400000000   1.0
  0.000100000  0.800000000  0.500000000   1.0
  0.000100000  0.800000000  0.600000000   1.0
  0.000100000  0.800000000  0.700000000   1.0
  0.000100000  0.800000000  0.800000000   1.0
  0.000100000  0.800000000  0.900000000   1.0
  0.000100000  0.900000000  0.000000000   1.0
  0.000100000  0.900000000  0.100000000   1.0
  0.000100000  0.900000000  0.200000000   1.0
  0.000100000  0.900000000  0.300000000   1.0
  0.000100000  0.900000000  0.400000000   1.0
  0.000100000  0.900000000  0.500000000   1.0
  0.000100000  0.900000000  0.600000000   1.0
  0.000100000  0.900000000  0.700000000   1.0
  0.000100000  0.900000000  0.800000000   1.0
  0.000100000  0.900000000  0.900000000   1.0
  0.100100000  0.000000000  0.000000000   1.0
  0.100100000  0.000000000  0.100000000   1.0
  0.100100000  0.000000000  0.200000000   1.0
  0.100100000  0.000000000  0.300000000   1.0
  0.100100000  0.000000000  0.400000000   1.0
  0.100100000  0.000000000  0.500000000   1.0
  0.100100000  0.000000000  0.600000000   1.0
  0.100100000  0.000000000  0.700000000   1.0
  0.100100000  0.000000000  0.800000000   1.0
  0.100100000  0.000000000  0.900000000   1.0
  0.100100000  0.100000000  0.000000000   1.0
  0.100100000  0.100000000  0.100000000   1.0
  0.100100000  0.100000000  0.200000000   1.0
  0.100100000  0.100000000  0.300000000   1.0
  0.100100000  0.100000000  0.400000000   1.0
  0.100100000  0.100000000  0.500000000   1.0
  0.100100000  0.100000000  0.600000000   1.0
  0.100100000  0.100000000  0.700000000   1.0
  0.100100000  0.100000000  0.800000000   1.0
  0.100100000  0.100000000  0.900000000   1.0
  0.100100000  0.200000000  0.000000000   1.0
  0.100100000  0.200000000  0.100000000   1.0
  0.100100000  0.200000000  0.200000000   1.0
  0.100100000  0.200000000  0.300000000   1.0
  0.100100000  0.200000000  0.400000000   1.0
  0.100100000  0.200000000  0.500000000   1.0
  0.100100000  0.200000000  0.600000000   1.0
  0.100100000  0.200000000  0.700000000   1.0
  0.100100000  0.200000000  0.800000000   1.0
  0.100100000  0.200000000  0.900000000   1.0
  0.100100000  0.300000000  0.000000000   1.0
  0.100100000  0.300000000  0.100000000   1.0
  0.100100000  0.300000000  0.200000000   1.0
  0.100100000  0.300000000  0.300000000   1.0
  0.100100000  0.300000000  0.400000000   1.0
  0.100100000  0.300000000  0.500000000   1.0
  0.100100000  0.300000000  0.600000000   1.0
  0.100100000  0.300000000  0.700000000   1.0
  0.100100000  0.300000000  0.800000000   1.0
  0.100100000  0.300000000  0.900000000   1.0
  0.100100000  0.400000000  0.000000000   1.0
  0.100100000  0.400000000  0.100000000   1.0
  0.100100000  0.400000000  0.200000000   1.0
  0.100100000  0.400000000  0.300000000   1.0
  0.100100000  0.400000000  0.400000000   1.0
  0.100100000  0.400000000  0.500000000   1.0
  0.100100000  0.400000000  0.600000000   1.0
  0.100100000  0.400000000  0.700000000   1.0
  0.100100000  0.400000000  0.800000000   1.0
  0.100100000  0.400000000  0.900000000   1.0
  0.100100000  0.500000000  0.000000000   1.0
  0.100100000  0.500000000  0.100000000   1.0
  0.100100000  0.500000000  0.200000000   1.0
  0.100100000  0.500000000  0.300000000   1.0
  0.100100000  0.500000000  0.400000000   1.0
  0.100100000  0.500000000  0.500000000   1.0
  0.100100000  0.500000000  0.600000000   1.0
  0.100100000  0.500000000  0.700000000   1.0
  0.100100000  0.500000000  0.800000000   1.0
  0.100100000  0.500000000  0.900000000   1.0
  0.100100000  0.600000000  0.000000000   1.0
  0.100100000  0.600000000  0.100000000   1.0
  0.100100000  0.600000000  0.200000000   1.0
  0.100100000  0.600000000  0.300000000   1.0
  0.100100000  0.600000000  0.400000000   1.0
  0.100100000  0.600000000  0.500000000   1.0
  0.100100000  0.600000000  0.600000000   1.0
  0.100100000  0.600000000  0.700000000   1.0
  0.100100000  0.600000000  0.800000000   1.0
  0.100100000  0.600000000  0.900000000   1.0
  0.100100000  0.700000000  0.000000000   1.0
  0.100100000  0.700000000  0.100000000   1.0
  0.100100000  0.700000000  0.200000000   1.0
  0.100100000  0.700000000  0.300000000   1.0
  0.100100000  0.700000000  0.400000000   1.0
  0.100100000  0.700000000  0.500000000   1.0
  0.100100000  0.700000000  0.600000000   1.0
  0.100100000  0.700000000  0.700000000   1.0
  0.100100000  0.700000000  0.800000000   1.0
  0.100100000  0.700000000  0.900000000   1.0
  0.100100000  0.800000000  0.000000000   1.0
  0.100100000  0.800000000  0.100000000   1.0
  0.100100000  0.800000000  0.200000000   1.0
  0.100100000  0.800000000  0.300000000   1.0
  0.100100000  0.800000000  0.400000000   1.0
  0.100100000  0.800000000  0.500000000   1.0
  0.100100000  0.800000000  0.600000000   1.0
  0.100100000  0.800000000  0.700000000   1.0
  0.100100000  0.800000000  0.800000000   1.0
  0.100100000  0.800000000  0.900000000   1.0
  0.100100000  0.900000000  0.000000000   1.0
  0.100100000  0.900000000  0.100000000   1.0
  0.100100000  0.900000000  0.200000000   1.0
  0.100100000  0.900000000  0.300000000   1.0
  0.100100000  0.900000000  0.400000000   1.0
  0.100100000  0.900000000  0.500000000   1.0
  0.100100000  0.900000000  0.600000000   1.0
  0.100100000  0.900000000  0.700000000   1.0
  0.100100000  0.900000000  0.800000000   1.0
  0.100100000  0.900000000  0.900000000   1.0
  0.200100000  0.000000000  0.000000000   1.0
  0.200100000  0.000000000  0.100000000   1.0
  0.200100000  0.000000000  0.200000000   1.0
  0.200100000  0.000000000  0.300000000   1.0
  0.200100000  0.000000000  0.400000000   1.0
  0.200100000  0.000000000  0.500000000   1.0
  0.200100000  0.000000000  0.600000000   1.0
  0.200100000  0.000000000  0.700000000   1.0
  0.200100000  0.000000000  0.800000000   1.0
  0.200100000  0.000000000  0.900000000   1.0
  0.200100000  0.100000000  0.000000000   1.0
  0.200100000  0.100000000  0.100000000   1.0
  0.200100000  0.100000000  0.200000000   1.0
  0.200100000  0.100000000  0.300000000   1.0
  0.200100000  0.100000000  0.400000000   1.0
  0.200100000  0.100000000  0.500000000   1.0
  0.200100000  0.100000000  0.600000000   1.0
  0.200100000  0.100000000  0.700000000   1.0
  0.200100000  0.100000000  0.800000000   1.0
  0.200100000  0.100000000  0.900000000   1.0
  0.200100000  0.200000000  0.000000000   1.0
  0.200100000  0.200000000  0.100000000   1.0
  0.200100000  0.200000000  0.200000000   1.0
  0.200100000  0.200000000  0.300000000   1.0
  0.200100000  0.200000000  0.400000000   1.0
  0.200100000  0.200000000  0.500000000   1.0
  0.200100000  0.200000000  0.600000000   1.0
  0.200100000  0.200000000  0.700000000   1.0
  0.200100000  0.200000000  0.800000000   1.0
  0.200100000  0.200000000  0.900000000   1.0
  0.200100000  0.300000000  0.000000000   1.0
  0.200100000  0.300000000  0.100000000   1.0
  0.200100000  0.300000000  0.200000000   1.0
  0.200100000  0.300000000  0.300000000   1.0
  0.200100000  0.300000000  0.400000000   1.0
  0.200100000  0.300000000  0.500000000   1.0
  0.200100000  0.300000000  0.600000000   1.0
  0.200100000  0.300000000  0.700000000   1.0
  0.200100000  0.300000000  0.800000000   1.0
  0.200100000  0.300000000  0.900000000   1.0
  0.200100000  0.400000000  0.000000000   1.0
  0.200100000  0.400000000  0.100000000   1.0
  0.200100000  0.400000000  0.200000000   1.0
  0.200100000  0.400000000  0.300000000   1.0
  0.200100000  0.400000000  0.400000000   1.0
  0.200100000  0.400000000  0.500000000   1.0
  0.200100000  0.400000000  0.600000000   1.0
  0.200100000  0.400000000  0.700000000   1.0
  0.200100000  0.400000000  0.800000000   1.0
  0.200100000  0.400000000  0.900000000   1.0
  0.200100000  0.500000000  0.000000000   1.0
  0.200100000  0.500000000  0.100000000   1.0
  0.200100000  0.500000000  0.200000000   1.0
  0.200100000  0.500000000  0.300000000   1.0
  0.200100000  0.500000000  0.400000000   1.0
  0.200100000  0.500000000  0.500000000   1.0
  0.200100000  0.500000000  0.600000000   1.0
  0.200100000  0.500000000  0.700000000   1.0
  0.200100000  0.500000000  0.800000000   1.0
  0.200100000  0.500000000  0.900000000   1.0
  0.200100000  0.600000000  0.000000000   1.0
  0.200100000  0.600000000  0.100000000   1.0
  0.200100000  0.600000000  0.200000000   1.0
  0.200100000  0.600000000  0.300000000   1.0
  0.200100000  0.600000000  0.400000000   1.0
  0.200100000  0.600000000  0.500000000   1.0
  0.200100000  0.600000000  0.600000000   1.0
  0.200100000  0.600000000  0.700000000   1.0
  0.200100000  0.600000000  0.800000000   1.0
  0.200100000  0.600000000  0.900000000   1.0
  0.200100000  0.700000000  0.000000000   1.0
  0.200100000  0.700000000  0.100000000   1.0
  0.200100000  0.700000000  0.200000000   1.0
  0.200100000  0.700000000  0.300000000   1.0
  0.200100000  0.700000000  0.400000000   1.0
  0.200100000  0.700000000  0.500000000   1.0
  0.200100000  0.700000000  0.600000000   1.0
  0.200100000  0.700000000  0.700000000   1.0
  0.200100000  0.700000000  0.800000000   1.0
  0.200100000  0.700000000  0.900000000   1.0
  0.200100000  0.800000000  0.000000000   1.0
  0.200100000  0.800000000  0.100000000   1.0
  0.200100000  0.800000000  0.200000000   1.0
  0.200100000  0.800000000  0.300000000   1.0
  0.200100000  0.800000000  0.400000000   1.0
  0.200100000  0.800000000  0.500000000   1.0
  0.200100000  0.800000000  0.600000000   1.0
  0.200100000  0.800000000  0.700000000   1.0
  0.200100000  0.800000000  0.800000000   1.0
  0.200100000  0.800000000  0.900000000   1.0
  0.200100000  0.900000000  0.000000000   1.0
  0.200100000  0.900000000  0.100000000   1.0
  0.200100000  0.900000000  0.200000000   1.0
  0.200100000  0.900000000  0.300000000   1.0
  0.200100000  0.900000000  0.400000000   1.0
  0.200100000  0.900000000  0.500000000   1.0
  0.200100000  0.900000000  0.600000000   1.0
  0.200100000  0.900000000  0.700000000   1.0
  0.200100000  0.900000000  0.800000000   1.0
  0.200100000  0.900000000  0.900000000   1.0
  0.300100000  0.000000000  0.000000000   1.0
  0.300100000  0.000000000  0.100000000   1.0
  0.300100000  0.000000000  0.200000000   1.0
  0.300100000  0.000000000  0.300000000   1.0
  0.300100000  0.000000000  0.400000000   1.0
  0.300100000  0.000000000  0.500000000   1.0
  0.300100000  0.000000000  0.600000000   1.0
  0.300100000  0.000000000  0.700000000   1.0
  0.300100000  0.000000000  0.800000000   1.0
  0.300100000  0.000000000  0.900000000   1.0
  0.300100000  0.100000000  0.000000000   1.0
  0.300100000  0.100000000  0.100000000   1.0
  0.300100000  0.100000000  0.200000000   1.0
  0.300100000  0.100000000  0.300000000   1.0
  0.300100000  0.100000000  0.400000000   1.0
  0.300100000  0.100000000  0.500000000   1.0
  0.300100000  0.100000000  0.600000000   1.0
  0.300100000  0.100000000  0.700000000   1.0
  0.300100000  0.100000000  0.800000000   1.0
  0.300100000  0.100000000  0.900000000   1.0
  0.300100000  0.200000000  0.000000000   1.0
  0.300100000  0.200000000  0.100000000   1.0
  0.300100000  0.200000000  0.200000000   1.0
  0.300100000  0.200000000  0.300000000   1.0
  0.300100000  0.200000000  0.400000000   1.0
  0.300100000  0.200000000  0.500000000   1.0
  0.300100000  0.200000000  0.600000000   1.0
  0.300100000  0.200000000  0.700000000   1.0
  0.300100000  0.200000000  0.800000000   1.0
  0.300100000  0.200000000  0.900000000   1.0
  0.300100000  0.300000000  0.000000000   1.0
  0.300100000  0.300000000  0.100000000   1.0
  0.300100000  0.300000000  0.200000000   1.0
  0.300100000  0.300000000  0.300000000   1.0
  0.300100000  0.300000000  0.400000000   1.0
  0.300100000  0.300000000  0.500000000   1.0
  0.300100000  0.300000000  0.600000000   1.0
  0.300100000  0.300000000  0.700000000   1.0
  0.300100000  0.300000000  0.800000000   1.0
  0.300100000  0.300000000  0.900000000   1.0
  0.300100000  0.400000000  0.000000000   1.0
  0.300100000  0.400000000  0.100000000   1.0
  0.300100000  0.400000000  0.200000000   1.0
  0.300100000  0.400000000  0.300000000   1.0
  0.300100000  0.400000000  0.400000000   1.0
  0.300100000  0.400000000  0.500000000   1.0
  0.300100000  0.400000000  0.600000000   1.0
  0.300100000  0.400000000  0.700000000   1.0
  0.300100000  0.400000000  0.800000000   1.0
  0.300100000  0.400000000  0.900000000   1.0
  0.300100000  0.500000000  0.000000000   1.0
  0.300100000  0.500000000  0.100000000   1.0
  0.300100000  0.500000000  0.200000000   1.0
  0.300100000  0.500000000  0.300000000   1.0
  0.300100000  0.500000000  0.400000000   1.0
  0.300100000  0.500000000  0.500000000   1.0
  0.300100000  0.500000000  0.600000000   1.0
  0.300100000  0.500000000  0.700000000   1.0
  0.300100000  0.500000000  0.800000000   1.0
  0.300100000  0.500000000  0.900000000   1.0
  0.300100000  0.600000000  0.000000000   1.0
  0.300100000  0.600000000  0.100000000   1.0
  0.300100000  0.600000000  0.200000000   1.0
  0.300100000  0.600000000  0.300000000   1.0
  0.300100000  0.600000000  0.400000000   1.0
  0.300100000  0.600000000  0.500000000   1.0
  0.300100000  0.600000000  0.600000000   1.0
  0.300100000  0.600000000  0.700000000   1.0
  0.300100000  0.600000000  0.800000000   1.0
  0.300100000  0.600000000  0.900000000   1.0
  0.300100000  0.700000000  0.000000000   1.0
  0.300100000  0.700000000  0.100000000   1.0
  0.300100000  0.700000000  0.200000000   1.0
  0.300100000  0.700000000  0.300000000   1.0
  0.300100000  0.700000000  0.400000000   1.0
  0.300100000  0.700000000  0.500000000   1.0
  0.300100000  0.700000000  0.600000000   1.0
  0.300100000  0.700000000  0.700000000   1.0
  0.300100000  0.700000000  0.800000000   1.0
  0.300100000  0.700000000  0.900000000   1.0
  0.300100000  0.800000000  0.000000000   1.0
  0.300100000  0.800000000  0.100000000   1.0
  0.300100000  0.800000000  0.200000000   1.0
  0.300100000  0.800000000  0.300000000   1.0
  0.300100000  0.800000000  0.400000000   1.0
  0.300100000  0.800000000  0.500000000   1.0
  0.300100000  0.800000000  0.600000000   1.0
  0.300100000  0.800000000  0.700000000   1.0
  0.300100000  0.800000000  0.800000000   1.0
  0.300100000  0.800000000  0.900000000   1.0
  0.300100000  0.900000000  0.000000000   1.0
  0.300100000  0.900000000  0.100000000   1.0
  0.300100000  0.900000000  0.200000000   1.0
  0.300100000  0.900000000  0.300000000   1.0
  0.300100000  0.900000000  0.400000000   1.0
  0.300100000  0.900000000  0.500000000   1.0
  0.300100000  0.900000000  0.600000000   1.0
  0.300100000  0.900000000  0.700000000   1.0
  0.300100000  0.900000000  0.800000000   1.0
  0.300100000  0.900000000  0.900000000   1.0
  0.400100000  0.000000000  0.000000000   1.0
  0.400100000  0.000000000  0.100000000   1.0
  0.400100000  0.000000000  0.200000000   1.0
  0.400100000  0.000000000  0.300000000   1.0
  0.400100000  0.000000000  0.400000000   1.0
  0.400100000  0.000000000  0.500000000   1.0
  0.400100000  0.000000000  0.600000000   1.0
  0.400100000  0.000000000  0.700000000   1.0
  0.400100000  0.000000000  0.800000000   1.0
  0.400100000  0.000000000  0.900000000   1.0
  0.400100000  0.100000000  0.000000000   1.0
  0.400100000  0.100000000  0.100000000   1.0
  0.400100000  0.100000000  0.200000000   1.0
  0.400100000  0.100000000  0.300000000   1.0
  0.400100000  0.100000000  0.400000000   1.0
  0.400100000  0.100000000  0.500000000   1.0
  0.400100000  0.100000000  0.600000000   1.0
  0.400100000  0.100000000  0.700000000   1.0
  0.400100000  0.100000000  0.800000000   1.0
  0.400100000  0.100000000  0.900000000   1.0
  0.400100000  0.200000000  0.000000000   1.0
  0.400100000  0.200000000  0.100000000   1.0
  0.400100000  0.200000000  0.200000000   1.0
  0.400100000  0.200000000  0.300000000   1.0
  0.400100000  0.200000000  0.400000000   1.0
  0.400100000  0.200000000  0.500000000   1.0
  0.400100000  0.200000000  0.600000000   1.0
  0.400100000  0.200000000  0.700000000   1.0
  0.400100000  0.200000000  0.800000000   1.0
  0.400100000  0.200000000  0.900000000   1.0
  0.400100000  0.300000000  0.000000000   1.0
  0.400100000  0.300000000  0.100000000   1.0
  0.400100000  0.300000000  0.200000000   1.0
  0.400100000  0.300000000  0.300000000   1.0
  0.400100000  0.300000000  0.400000000   1.0
  0.400100000  0.300000000  0.500000000   1.0
  0.400100000  0.300000000  0.600000000   1.0
  0.400100000  0.300000000  0.700000000   1.0
  0.400100000  0.300000000  0.800000000   1.0
  0.400100000  0.300000000  0.900000000   1.0
  0.400100000  0.400000000  0.000000000   1.0
  0.400100000  0.400000000  0.100000000   1.0
  0.400100000  0.400000000  0.200000000   1.0
  0.400100000  0.400000000  0.300000000   1.0
  0.400100000  0.400000000  0.400000000   1.0
  0.400100000  0.400000000  0.500000000   1.0
  0.400100000  0.400000000  0.600000000   1.0
  0.400100000  0.400000000  0.700000000   1.0
  0.400100000  0.400000000  0.800000000   1.0
  0.400100000  0.400000000  0.900000000   1.0
  0.400100000  0.500000000  0.000000000   1.0
  0.400100000  0.500000000  0.100000000   1.0
  0.400100000  0.500000000  0.200000000   1.0
  0.400100000  0.500000000  0.300000000   1.0
  0.400100000  0.500000000  0.400000000   1.0
  0.400100000  0.500000000  0.500000000   1.0
  0.400100000  0.500000000  0.600000000   1.0
  0.400100000  0.500000000  0.700000000   1.0
  0.400100000  0.500000000  0.800000000   1.0
  0.400100000  0.500000000  0.900000000   1.0
  0.400100000  0.600000000  0.000000000   1.0
  0.400100000  0.600000000  0.100000000   1.0
  0.400100000  0.600000000  0.200000000   1.0
  0.400100000  0.600000000  0.300000000   1.0
  0.400100000  0.600000000  0.400000000   1.0
  0.400100000  0.600000000  0.500000000   1.0
  0.400100000  0.600000000  0.600000000   1.0
  0.400100000  0.600000000  0.700000000   1.0
  0.400100000  0.600000000  0.800000000   1.0
  0.400100000  0.600000000  0.900000000   1.0
  0.400100000  0.700000000  0.000000000   1.0
  0.400100000  0.700000000  0.100000000   1.0
  0.400100000  0.700000000  0.200000000   1.0
  0.400100000  0.700000000  0.300000000   1.0
  0.400100000  0.700000000  0.400000000   1.0
  0.400100000  0.700000000  0.500000000   1.0
  0.400100000  0.700000000  0.600000000   1.0
  0.400100000  0.700000000  0.700000000   1.0
  0.400100000  0.700000000  0.800000000   1.0
  0.400100000  0.700000000  0.900000000   1.0
  0.400100000  0.800000000  0.000000000   1.0
  0.400100000  0.800000000  0.100000000   1.0
  0.400100000  0.800000000  0.200000000   1.0
  0.400100000  0.800000000  0.300000000   1.0
  0.400100000  0.800000000  0.400000000   1.0
  0.400100000  0.800000000  0.500000000   1.0
  0.400100000  0.800000000  0.600000000   1.0
  0.400100000  0.800000000  0.700000000   1.0
  0.400100000  0.800000000  0.800000000   1.0
  0.400100000  0.800000000  0.900000000   1.0
  0.400100000  0.900000000  0.000000000   1.0
  0.400100000  0.900000000  0.100000000   1.0
  0.400100000  0.900000000  0.200000000   1.0
  0.400100000  0.900000000  0.300000000   1.0
  0.400100000  0.900000000  0.400000000   1.0
  0.400100000  0.900000000  0.500000000   1.0
  0.400100000  0.900000000  0.600000000   1.0
  0.400100000  0.900000000  0.700000000   1.0
  0.400100000  0.900000000  0.800000000   1.0
  0.400100000  0.900000000  0.900000000   1.0
  0.500100000  0.000000000  0.000000000   1.0
  0.500100000  0.000000000  0.100000000   1.0
  0.500100000  0.000000000  0.200000000   1.0
  0.500100000  0.000000000  0.300000000   1.0
  0.500100000  0.000000000  0.400000000   1.0
  0.500100000  0.000000000  0.500000000   1.0
  0.500100000  0.000000000  0.600000000   1.0
  0.500100000  0.000000000  0.700000000   1.0
  0.500100000  0.000000000  0.800000000   1.0
  0.500100000  0.000000000  0.900000000   1.0
  0.500100000  0.100000000  0.000000000   1.0
  0.500100000  0.100000000  0.100000000   1.0
  0.500100000  0.100000000  0.200000000   1.0
  0.500100000  0.100000000  0.300000000   1.0
  0.500100000  0.100000000  0.400000000   1.0
  0.500100000  0.100000000  0.500000000   1.0
  0.500100000  0.100000000  0.600000000   1.0
  0.500100000  0.100000000  0.700000000   1.0
  0.500100000  0.100000000  0.800000000   1.0
  0.500100000  0.100000000  0.900000000   1.0
  0.500100000  0.200000000  0.000000000   1.0
  0.500100000  0.200000000  0.100000000   1.0
  0.500100000  0.200000000  0.200000000   1.0
  0.500100000  0.200000000  0.300000000   1.0
  0.500100000  0.200000000  0.400000000   1.0
  0.500100000  0.200000000  0.500000000   1.0
  0.500100000  0.200000000  0.600000000   1.0
  0.500100000  0.200000000  0.700000000   1.0
  0.500100000  0.200000000  0.800000000   1.0
  0.500100000  0.200000000  0.900000000   1.0
  0.500100000  0.300000000  0.000000000   1.0
  0.500100000  0.300000000  0.100000000   1.0
  0.500100000  0.300000000  0.200000000   1.0
  0.500100000  0.300000000  0.300000000   1.0
  0.500100000  0.300000000  0.400000000   1.0
  0.500100000  0.300000000  0.500000000   1.0
  0.500100000  0.300000000  0.600000000   1.0
  0.500100000  0.300000000  0.700000000   1.0
  0.500100000  0.300000000  0.800000000   1.0
  0.500100000  0.300000000  0.900000000   1.0
  0.500100000  0.400000000  0.000000000   1.0
  0.500100000  0.400000000  0.100000000   1.0
  0.500100000  0.400000000  0.200000000   1.0
  0.500100000  0.400000000  0.300000000   1.0
  0.500100000  0.400000000  0.400000000   1.0
  0.500100000  0.400000000  0.500000000   1.0
  0.500100000  0.400000000  0.600000000   1.0
  0.500100000  0.400000000  0.700000000   1.0
  0.500100000  0.400000000  0.800000000   1.0
  0.500100000  0.400000000  0.900000000   1.0
  0.500100000  0.500000000  0.000000000   1.0
  0.500100000  0.500000000  0.100000000   1.0
  0.500100000  0.500000000  0.200000000   1.0
  0.500100000  0.500000000  0.300000000   1.0
  0.500100000  0.500000000  0.400000000   1.0
  0.500100000  0.500000000  0.500000000   1.0
  0.500100000  0.500000000  0.600000000   1.0
  0.500100000  0.500000000  0.700000000   1.0
  0.500100000  0.500000000  0.800000000   1.0
  0.500100000  0.500000000  0.900000000   1.0
  0.500100000  0.600000000  0.000000000   1.0
  0.500100000  0.600000000  0.100000000   1.0
  0.500100000  0.600000000  0.200000000   1.0
  0.500100000  0.600000000  0.300000000   1.0
  0.500100000  0.600000000  0.400000000   1.0
  0.500100000  0.600000000  0.500000000   1.0
  0.500100000  0.600000000  0.600000000   1.0
  0.500100000  0.600000000  0.700000000   1.0
  0.500100000  0.600000000  0.800000000   1.0
  0.500100000  0.600000000  0.900000000   1.0
  0.500100000  0.700000000  0.000000000   1.0
  0.500100000  0.700000000  0.100000000   1.0
  0.500100000  0.700000000  0.200000000   1.0
  0.500100000  0.700000000  0.300000000   1.0
  0.500100000  0.700000000  0.400000000   1.0
  0.500100000  0.700000000  0.500000000   1.0
  0.500100000  0.700000000  0.600000000   1.0
  0.500100000  0.700000000  0.700000000   1.0
  0.500100000  0.700000000  0.800000000   1.0
  0.500100000  0.700000000  0.900000000   1.0
  0.500100000  0.800000000  0.000000000   1.0
  0.500100000  0.800000000  0.100000000   1.0
  0.500100000  0.800000000  0.200000000   1.0
  0.500100000  0.800000000  0.300000000   1.0
  0.500100000  0.800000000  0.400000000   1.0
  0.500100000  0.800000000  0.500000000   1.0
  0.500100000  0.800000000  0.600000000   1.0
  0.500100000  0.800000000  0.700000000   1.0
  0.500100000  0.800000000  0.800000000   1.0
  0.500100000  0.800000000  0.900000000   1.0
  0.500100000  0.900000000  0.000000000   1.0
  0.500100000  0.900000000  0.100000000   1.0
  0.500100000  0.900000000  0.200000000   1.0
  0.500100000  0.900000000  0.300000000   1.0
  0.500100000  0.900000000  0.400000000   1.0
  0.500100000  0.900000000  0.500000000   1.0
  0.500100000  0.900000000  0.600000000   1.0
  0.500100000  0.900000000  0.700000000   1.0
  0.500100000  0.900000000  0.800000000   1.0
  0.500100000  0.900000000  0.900000000   1.0
  0.600100000  0.000000000  0.000000000   1.0
  0.600100000  0.000000000  0.100000000   1.0
  0.600100000  0.000000000  0.200000000   1.0
  0.600100000  0.000000000  0.300000000   1.0
  0.600100000  0.000000000  0.400000000   1.0
  0.600100000  0.000000000  0.500000000   1.0
  0.600100000  0.000000000  0.600000000   1.0
  0.600100000  0.000000000  0.700000000   1.0
  0.600100000  0.000000000  0.800000000   1.0
  0.600100000  0.000000000  0.900000000   1.0
  0.600100000  0.100000000  0.000000000   1.0
  0.600100000  0.100000000  0.100000000   1.0
  0.600100000  0.100000000  0.200000000   1.0
  0.600100000  0.100000000  0.300000000   1.0
  0.600100000  0.100000000  0.400000000   1.0
  0.600100000  0.100000000  0.500000000   1.0
  0.600100000  0.100000000  0.600000000   1.0
  0.600100000  0.100000000  0.700000000   1.0
  0.600100000  0.100000000  0.800000000   1.0
  0.600100000  0.100000000  0.900000000   1.0
  0.600100000  0.200000000  0.000000000   1.0
  0.600100000  0.200000000  0.100000000   1.0
  0.600100000  0.200000000  0.200000000   1.0
  0.600100000  0.200000000  0.300000000   1.0
  0.600100000  0.200000000  0.400000000   1.0
  0.600100000  0.200000000  0.500000000   1.0
  0.600100000  0.200000000  0.600000000   1.0
  0.600100000  0.200000000  0.700000000   1.0
  0.600100000  0.200000000  0.800000000   1.0
  0.600100000  0.200000000  0.900000000   1.0
  0.600100000  0.300000000  0.000000000   1.0
  0.600100000  0.300000000  0.100000000   1.0
  0.600100000  0.300000000  0.200000000   1.0
  0.600100000  0.300000000  0.300000000   1.0
  0.600100000  0.300000000  0.400000000   1.0
  0.600100000  0.300000000  0.500000000   1.0
  0.600100000  0.300000000  0.600000000   1.0