
     Program PWSCF v.7.3.1 starts on 13Apr2026 at 21:53:41 
        Git branch: HEAD
        Last git commit: 7fd60c9bc9fe7a7d1fe6f1049f4afba0eab9aeef-dirty
        Last git commit date: Thu Feb 29 10:18:05 2024 +0000
        Last git commit subject: Merge branch 'master_qe_7.3.1' into 'master'

     This program is part of the open-source Quantum ESPRESSO suite
     for quantum simulation of materials; please cite
         "P. Giannozzi et al., J. Phys.:Condens. Matter 21 395502 (2009);
         "P. Giannozzi et al., J. Phys.:Condens. Matter 29 465901 (2017);
         "P. Giannozzi et al., J. Chem. Phys. 152 154105 (2020);
          URL http://www.quantum-espresso.org", 
     in publications or presentations arising from this work. More details at
     http://www.quantum-espresso.org/quote

     Parallel version (MPI & OpenMP), running on      16 processor cores
     Number of MPI processes:                 1
     Threads/MPI process:                    16

     MPI processes distributed on     1 nodes
     233736 MiB available memory on the printing compute node when the environment starts
 
     Reading input from nscf.in

     Current dimensions of program PWSCF are:
     Max number of different atomic species (ntypx) = 10
     Max number of k-points (npk) =  40000
     Max angular momentum in pseudopotentials (lmaxx) =  4

     Atomic positions and unit cell read from directory:
     ./silicon.save/
 
 
     Subspace diagonalization in iterative solution of the eigenvalue problem:
     a serial algorithm will be used

 
     G-vector sticks info
     --------------------
     sticks:   dense  smooth     PW     G-vecs:    dense   smooth      PW
     Sum         361     361    121                 4573     4573     941
 
     Using Slab Decomposition
 


     bravais-lattice index     =            0
     lattice parameter (alat)  =       7.2558  a.u.
     unit-cell volume          =     270.1072 (a.u.)^3
     number of atoms/cell      =            2
     number of atomic types    =            1
     number of electrons       =         8.00
     number of Kohn-Sham states=          200
     kinetic-energy cutoff     =      25.0000  Ry
     charge density cutoff     =     100.0000  Ry
     Exchange-correlation= PBE
                           (   1   4   3   4   0   0   0)
     Non magnetic calculation with spin-orbit


     GPU acceleration is ACTIVE.  1 visible GPUs per MPI rank


     celldm(1)=   7.255773  celldm(2)=   0.000000  celldm(3)=   0.000000
     celldm(4)=   0.000000  celldm(5)=   0.000000  celldm(6)=   0.000000

     crystal axes: (cart. coord. in units of alat)
               a(1) = (   0.707107   0.707107   0.000000 )  
               a(2) = (   0.000000   0.707107   0.707107 )  
               a(3) = (   0.707107   0.000000   0.707107 )  

     reciprocal axes: (cart. coord. in units 2 pi/alat)
               b(1) = (  0.707107  0.707107 -0.707107 )  
               b(2) = ( -0.707107  0.707107  0.707107 )  
               b(3) = (  0.707107 -0.707107  0.707107 )  


     PseudoPot. # 1 for Si read from file:
     ./Si.upf
     MD5 check sum: d8e8ea3dd55db7858206a05f373c9c65
     Pseudo is Norm-conserving + core correction, Zval =  4.0
     Generated using ONCVPSP code by D. R. Hamann
     Using radial grid of 1528 points, 10 beta functions with: 
                l(1) =   0
                l(2) =   0
                l(3) =   1
                l(4) =   1
                l(5) =   1
                l(6) =   1
                l(7) =   2
                l(8) =   2
                l(9) =   2
               l(10) =   2

     atomic species   valence    mass     pseudopotential
     Si                4.00    28.08500     Si( 1.00)

     No symmetry found



   Cartesian axes

     site n.     atom                  positions (alat units)
         1        Si     tau(   1) = (  -0.1767767  -0.1767767  -0.1767767  )
         2        Si     tau(   2) = (   0.1767767   0.1767767   0.1767767  )

     number of k points=    64
                       cart. coord. in units 2pi/alat
        k(    1) = (   0.0000000   0.0000000   0.0000000), wk =   0.0156250
        k(    2) = (   0.1767767  -0.1767767   0.1767767), wk =   0.0156250
        k(    3) = (   0.3535534  -0.3535534   0.3535534), wk =   0.0156250
        k(    4) = (   0.5303301  -0.5303301   0.5303301), wk =   0.0156250
        k(    5) = (  -0.1767767   0.1767767   0.1767767), wk =   0.0156250
        k(    6) = (   0.0000000   0.0000000   0.3535534), wk =   0.0156250
        k(    7) = (   0.1767767  -0.1767767   0.5303301), wk =   0.0156250
        k(    8) = (   0.3535534  -0.3535534   0.7071068), wk =   0.0156250
        k(    9) = (  -0.3535534   0.3535534   0.3535534), wk =   0.0156250
        k(   10) = (  -0.1767767   0.1767767   0.5303301), wk =   0.0156250
        k(   11) = (   0.0000000   0.0000000   0.7071068), wk =   0.0156250
        k(   12) = (   0.1767767  -0.1767767   0.8838835), wk =   0.0156250
        k(   13) = (  -0.5303301   0.5303301   0.5303301), wk =   0.0156250
        k(   14) = (  -0.3535534   0.3535534   0.7071068), wk =   0.0156250
        k(   15) = (  -0.1767767   0.1767767   0.8838835), wk =   0.0156250
        k(   16) = (  -0.0000000   0.0000000   1.0606602), wk =   0.0156250
        k(   17) = (   0.1767767   0.1767767  -0.1767767), wk =   0.0156250
        k(   18) = (   0.3535534   0.0000000   0.0000000), wk =   0.0156250
        k(   19) = (   0.5303301  -0.1767767   0.1767767), wk =   0.0156250
        k(   20) = (   0.7071068  -0.3535534   0.3535534), wk =   0.0156250
        k(   21) = (   0.0000000   0.3535534   0.0000000), wk =   0.0156250
        k(   22) = (   0.1767767   0.1767767   0.1767767), wk =   0.0156250
        k(   23) = (   0.3535534   0.0000000   0.3535534), wk =   0.0156250
        k(   24) = (   0.5303301  -0.1767767   0.5303301), wk =   0.0156250
        k(   25) = (  -0.1767767   0.5303301   0.1767767), wk =   0.0156250
        k(   26) = (   0.0000000   0.3535534   0.3535534), wk =   0.0156250
        k(   27) = (   0.1767767   0.1767767   0.5303301), wk =   0.0156250
        k(   28) = (   0.3535534   0.0000000   0.7071068), wk =   0.0156250
        k(   29) = (  -0.3535534   0.7071068   0.3535534), wk =   0.0156250
        k(   30) = (  -0.1767767   0.5303301   0.5303301), wk =   0.0156250
        k(   31) = (   0.0000000   0.3535534   0.7071068), wk =   0.0156250
        k(   32) = (   0.1767767   0.1767767   0.8838835), wk =   0.0156250
        k(   33) = (   0.3535534   0.3535534  -0.3535534), wk =   0.0156250
        k(   34) = (   0.5303301   0.1767767  -0.1767767), wk =   0.0156250
        k(   35) = (   0.7071068   0.0000000   0.0000000), wk =   0.0156250
        k(   36) = (   0.8838835  -0.1767767   0.1767767), wk =   0.0156250
        k(   37) = (   0.1767767   0.5303301  -0.1767767), wk =   0.0156250
        k(   38) = (   0.3535534   0.3535534   0.0000000), wk =   0.0156250
        k(   39) = (   0.5303301   0.1767767   0.1767767), wk =   0.0156250
        k(   40) = (   0.7071068   0.0000000   0.3535534), wk =   0.0156250
        k(   41) = (   0.0000000   0.7071068   0.0000000), wk =   0.0156250
        k(   42) = (   0.1767767   0.5303301   0.1767767), wk =   0.0156250
        k(   43) = (   0.3535534   0.3535534   0.3535534), wk =   0.0156250
        k(   44) = (   0.5303301   0.1767767   0.5303301), wk =   0.0156250
        k(   45) = (  -0.1767767   0.8838835   0.1767767), wk =   0.0156250
        k(   46) = (   0.0000000   0.7071068   0.3535534), wk =   0.0156250
        k(   47) = (   0.1767767   0.5303301   0.5303301), wk =   0.0156250
        k(   48) = (   0.3535534   0.3535534   0.7071068), wk =   0.0156250
        k(   49) = (   0.5303301   0.5303301  -0.5303301), wk =   0.0156250
        k(   50) = (   0.7071068   0.3535534  -0.3535534), wk =   0.0156250
        k(   51) = (   0.8838835   0.1767767  -0.1767767), wk =   0.0156250
        k(   52) = (   1.0606602   0.0000000  -0.0000000), wk =   0.0156250
        k(   53) = (   0.3535534   0.7071068  -0.3535534), wk =   0.0156250
        k(   54) = (   0.5303301   0.5303301  -0.1767767), wk =   0.0156250
        k(   55) = (   0.7071068   0.3535534  -0.0000000), wk =   0.0156250
        k(   56) = (   0.8838835   0.1767767   0.1767767), wk =   0.0156250
        k(   57) = (   0.1767767   0.8838835  -0.1767767), wk =   0.0156250
        k(   58) = (   0.3535534   0.7071068  -0.0000000), wk =   0.0156250
        k(   59) = (   0.5303301   0.5303301   0.1767767), wk =   0.0156250
        k(   60) = (   0.7071068   0.3535534   0.3535534), wk =   0.0156250
        k(   61) = (   0.0000000   1.0606602  -0.0000000), wk =   0.0156250
        k(   62) = (   0.1767767   0.8838835   0.1767767), wk =   0.0156250
        k(   63) = (   0.3535534   0.7071068   0.3535534), wk =   0.0156250
        k(   64) = (   0.5303301   0.5303301   0.5303301), wk =   0.0156250

     Dense  grid:     4573 G-vectors     FFT dimensions: (  24,  24,  24)

     Estimated max dynamical RAM per process >      67.17 MB

 %%%%%%%%%%%%%%%%%%%%%%%%%%%%%%%%%%%%%%%%%%%%%%%%%%%%%%%%%%%%%%%%%%%%%%%%%%%%%%
     Error in routine memory_report (1):
     more bands than PWs!
 %%%%%%%%%%%%%%%%%%%%%%%%%%%%%%%%%%%%%%%%%%%%%%%%%%%%%%%%%%%%%%%%%%%%%%%%%%%%%%

     stopping ...
MPICH ERROR [Rank 0] [job id 51538003.6] [Mon Apr 13 21:53:42 2026] [nid001237] - Abort(1) (rank 0 in comm 0): application called MPI_Abort(MPI_COMM_WORLD, 1) - process 0

srun: error: nid001237: task 0: Exited with exit code 1
srun: Terminating StepId=51538003.6
