=== SCF for 2x2x2 ===
srun: Step created for StepId=53097982.40

     Program PWSCF v.7.3.1 starts on 18May2026 at  2:26:20 
        Git branch: HEAD
        Last git commit: 7fd60c9bc9fe7a7d1fe6f1049f4afba0eab9aeef-dirty
        Last git commit date: Thu Feb 29 10:18:05 2024 +0000
        Last git commit subject: Merge branch 'master_qe_7.3.1' into 'master'

     This program is part of the open-source Quantum ESPRESSO suite
     for quantum simulation of materials; please cite
         "P. Giannozzi et al., J. Phys.:Condens. Matter 21 395502 (2009);
         "P. Giannozzi et al., J. Phys.:Condens. Matter 29 465901 (2017);
         "P. Giannozzi et al., J. Chem. Phys. 152 154105 (2020);
          URL http://www.quantum-espresso.org", 
     in publications or presentations arising from this work. More details at
     http://www.quantum-espresso.org/quote

     Parallel version (MPI & OpenMP), running on      64 processor cores
     Number of MPI processes:                 4
     Threads/MPI process:                    16

     MPI processes distributed on     1 nodes
     231930 MiB available memory on the printing compute node when the environment starts
 
     Reading input from scf.in

     Current dimensions of program PWSCF are:
     Max number of different atomic species (ntypx) = 10
     Max number of k-points (npk) =  40000
     Max angular momentum in pseudopotentials (lmaxx) =  4
     Message from routine setup:
     using ibrav=0 with symmetry is DISCOURAGED, use correct ibrav instead
 
     K-points division:     npool     =       4
     Subspace diagonalization in iterative solution of the eigenvalue problem:
     a serial algorithm will be used

     Message from routine divide_et_impera:
     suboptimal parallelization: some nodes have no k-points
 
     G-vector sticks info
     --------------------
     sticks:   dense  smooth     PW     G-vecs:    dense   smooth      PW
     Sum         361     361    121                 4573     4573     869
 
     Using Slab Decomposition
 


     bravais-lattice index     =            0
     lattice parameter (alat)  =       7.2558  a.u.
     unit-cell volume          =     270.1072 (a.u.)^3
     number of atoms/cell      =            2
     number of atomic types    =            1
     number of electrons       =         8.00
     number of Kohn-Sham states=           16
     kinetic-energy cutoff     =      25.0000  Ry
     charge density cutoff     =     100.0000  Ry
     scf convergence threshold =      1.0E-10
     mixing beta               =       0.7000
     number of iterations used =            8  plain     mixing
     Exchange-correlation= PBE
                           (   1   4   3   4   0   0   0)
     Noncollinear calculation without spin-orbit


     GPU acceleration is ACTIVE.  4 visible GPUs per MPI rank


     celldm(1)=   7.255773  celldm(2)=   0.000000  celldm(3)=   0.000000
     celldm(4)=   0.000000  celldm(5)=   0.000000  celldm(6)=   0.000000

     crystal axes: (cart. coord. in units of alat)
               a(1) = (   0.707107   0.707107   0.000000 )  
               a(2) = (   0.000000   0.707107   0.707107 )  
               a(3) = (   0.707107   0.000000   0.707107 )  

     reciprocal axes: (cart. coord. in units 2 pi/alat)
               b(1) = (  0.707107  0.707107 -0.707107 )  
               b(2) = ( -0.707107  0.707107  0.707107 )  
               b(3) = (  0.707107 -0.707107  0.707107 )  


     PseudoPot. # 1 for Si read from file:
     ./Si.upf
     MD5 check sum: d8e8ea3dd55db7858206a05f373c9c65
     Pseudo is Norm-conserving + core correction, Zval =  4.0
     Generated using ONCVPSP code by D. R. Hamann
     Using radial grid of 1528 points,  6 beta functions with: 
                l(1) =   0
                l(2) =   0
                l(3) =   1
                l(4) =   1
                l(5) =   2
                l(6) =   2

     atomic species   valence    mass     pseudopotential
     Si                4.00    28.08500     Si( 1.00)

     48 Sym. Ops., with inversion, found (36 have fractional translation)



   Cartesian axes

     site n.     atom                  positions (alat units)
         1        Si     tau(   1) = (  -0.1767767  -0.1767767  -0.1767767  )
         2        Si     tau(   2) = (   0.1767767   0.1767767   0.1767767  )

     number of k points=     3
                       cart. coord. in units 2pi/alat
        k(    1) = (   0.0000000   0.0000000   0.0000000), wk =   0.1250000
        k(    2) = (  -0.3535534   0.3535534  -0.3535534), wk =   0.5000000
        k(    3) = (   0.0000000   0.0000000  -0.7071068), wk =   0.3750000

     Dense  grid:     4573 G-vectors     FFT dimensions: (  24,  24,  24)

     Estimated max dynamical RAM per process >      12.45 MB

     Estimated total dynamical RAM >      36.39 MB

     Initial potential from superposition of free atoms

     starting charge       7.9988, renormalised to       8.0000
     Starting wfcs are   16 randomized atomic wfcs

     total cpu time spent up to now is        0.4 secs

     per-process dynamical memory:   296.9 Mb

     Self-consistent Calculation

     iteration #  1     ecut=    25.00 Ry     beta= 0.70
     Davidson diagonalization with overlap
     ethr =  1.00E-02,  avg # of iterations =  3.0

     total cpu time spent up to now is        0.4 secs

     total energy              =     -16.72902286 Ry
     estimated scf accuracy    <       0.10689596 Ry

     iteration #  2     ecut=    25.00 Ry     beta= 0.70
     Davidson diagonalization with overlap
     ethr =  1.34E-03,  avg # of iterations =  1.3

     total cpu time spent up to now is        0.4 secs

     total energy              =     -16.73510276 Ry
     estimated scf accuracy    <       0.00433505 Ry

     iteration #  3     ecut=    25.00 Ry     beta= 0.70
     Davidson diagonalization with overlap
     ethr =  5.42E-05,  avg # of iterations =  2.0

     total cpu time spent up to now is        0.5 secs

     total energy              =     -16.73553494 Ry
     estimated scf accuracy    <       0.00007086 Ry

     iteration #  4     ecut=    25.00 Ry     beta= 0.70
     Davidson diagonalization with overlap
     ethr =  8.86E-07,  avg # of iterations =  3.7

     total cpu time spent up to now is        0.5 secs

     total energy              =     -16.73556774 Ry
     estimated scf accuracy    <       0.00000311 Ry

     iteration #  5     ecut=    25.00 Ry     beta= 0.70
     Davidson diagonalization with overlap
     ethr =  3.89E-08,  avg # of iterations =  3.0

     total cpu time spent up to now is        0.5 secs

     total energy              =     -16.73556827 Ry
     estimated scf accuracy    <       0.00000019 Ry

     iteration #  6     ecut=    25.00 Ry     beta= 0.70
     Davidson diagonalization with overlap
     ethr =  2.36E-09,  avg # of iterations =  2.7

     total cpu time spent up to now is        0.6 secs

     total energy              =     -16.73556830 Ry
     estimated scf accuracy    <          6.1E-10 Ry

     iteration #  7     ecut=    25.00 Ry     beta= 0.70
     Davidson diagonalization with overlap
     ethr =  7.62E-12,  avg # of iterations =  6.7

     total cpu time spent up to now is        0.6 secs

     End of self-consistent calculation

          k = 0.0000 0.0000 0.0000 (   537 PWs)   bands (ev):

    -5.4890  -5.4890   6.5377   6.5377   6.5377   6.5377   6.5377   6.5377
     8.9742   8.9742   8.9742   8.9742   8.9742   8.9742   9.9019   9.9019

          k =-0.3536 0.3536-0.3536 (   568 PWs)   bands (ev):

    -3.1380  -3.1380  -0.5098  -0.5098   5.3047   5.3047   5.3047   5.3047
     8.0248   8.0248   9.7410   9.7410   9.7410   9.7410  14.1847  14.1847

          k = 0.0000 0.0000-0.7071 (   588 PWs)   bands (ev):

    -1.3231  -1.3231  -1.3231  -1.3231   3.6130   3.6130   3.6130   3.6130
     7.1347   7.1347   7.1347   7.1347  16.5791  16.5791  16.5791  16.5791

     highest occupied, lowest unoccupied level (ev):     6.5377    7.1347

!    total energy              =     -16.73556830 Ry
     estimated scf accuracy    <          6.3E-11 Ry

     The total energy is the sum of the following terms:
     one-electron contribution =       5.06261042 Ry
     hartree contribution      =       1.26288050 Ry
     xc contribution           =      -6.26211546 Ry
     ewald contribution        =     -16.79894375 Ry

     convergence has been achieved in   7 iterations

     Writing all to output data dir ./silicon.save/ :
     XML data file, charge density, pseudopotentials, collected wavefunctions
 
     init_run     :      0.14s CPU      0.24s WALL (       1 calls)
     electrons    :      0.36s CPU      0.27s WALL (       1 calls)

     Called by init_run:
     wfcinit      :      0.07s CPU      0.12s WALL (       1 calls)
     potinit      :      0.02s CPU      0.05s WALL (       1 calls)
     hinit0       :      0.05s CPU      0.06s WALL (       1 calls)

     Called by electrons:
     c_bands      :      0.21s CPU      0.19s WALL (       7 calls)
     sum_band     :      0.03s CPU      0.04s WALL (       7 calls)
     v_of_rho     :      0.04s CPU      0.06s WALL (       8 calls)
     mix_rho      :      0.02s CPU      0.03s WALL (       7 calls)

     Called by c_bands:
     init_us_2    :      0.02s CPU      0.00s WALL (      15 calls)
     cegterg      :      0.16s CPU      0.15s WALL (       7 calls)

     Called by *egterg:
     cdiaghg      :      0.03s CPU      0.05s WALL (      24 calls)
                                        0.05s GPU  (      24 calls)
     h_psi        :      0.16s CPU      0.18s WALL (      25 calls)
                                        0.18s GPU  (      25 calls)
     g_psi        :      0.00s CPU      0.00s WALL (      17 calls)
                                        0.00s GPU  (      17 calls)

     Called by h_psi:
     h_psi:calbec :      0.03s CPU      0.06s WALL (      25 calls)
                                        0.06s GPU  (      25 calls)
     vloc_psi     :      0.12s CPU      0.12s WALL (      25 calls)
                                        0.12s GPU  (      25 calls)
     add_vuspsi   :      0.00s CPU      0.00s WALL (      25 calls)
                                        0.00s GPU  (      25 calls)

     General routines
     calbec       :      0.03s CPU      0.06s WALL (      25 calls)
     fft          :      0.00s CPU      0.02s WALL (     122 calls)
                                        0.02s GPU  (     122 calls)
     ffts         :      0.00s CPU      0.00s WALL (      28 calls)
                                        0.00s GPU  (      28 calls)
     fftw         :      0.01s CPU      0.04s WALL (    1564 calls)
                                        0.03s GPU  (    1564 calls)
 
     Parallel routines
 
     PWSCF        :      0.64s CPU      0.66s WALL

 
   This run was terminated on:   2:26:20  18May2026            

=------------------------------------------------------------------------------=
   JOB DONE.
=------------------------------------------------------------------------------=
Warning: ieee_invalid is signaling
Warning: ieee_divide_by_zero is signaling
Warning: ieee_inexact is signaling
FORTRAN STOP
Warning: ieee_invalid is signaling
Warning: ieee_divide_by_zero is signaling
Warning: ieee_inexact is signaling
FORTRAN STOP
Warning: ieee_invalid is signaling
Warning: ieee_divide_by_zero is signaling
Warning: ieee_inexact is signaling
FORTRAN STOP
Warning: ieee_invalid is signaling
Warning: ieee_divide_by_zero is signaling
Warning: ieee_inexact is signaling
FORTRAN STOP
