
     Program PWSCF v.7.3.1 starts on  7May2026 at 11:19:29 
        Git branch: HEAD
        Last git commit: 7fd60c9bc9fe7a7d1fe6f1049f4afba0eab9aeef-dirty
        Last git commit date: Thu Feb 29 10:18:05 2024 +0000
        Last git commit subject: Merge branch 'master_qe_7.3.1' into 'master'

     This program is part of the open-source Quantum ESPRESSO suite
     for quantum simulation of materials; please cite
         "P. Giannozzi et al., J. Phys.:Condens. Matter 21 395502 (2009);
         "P. Giannozzi et al., J. Phys.:Condens. Matter 29 465901 (2017);
         "P. Giannozzi et al., J. Chem. Phys. 152 154105 (2020);
          URL http://www.quantum-espresso.org", 
     in publications or presentations arising from this work. More details at
     http://www.quantum-espresso.org/quote

     Parallel version (MPI & OpenMP), running on      64 processor cores
     Number of MPI processes:                 4
     Threads/MPI process:                    16

     MPI processes distributed on     1 nodes
     186351 MiB available memory on the printing compute node when the environment starts
 
     Reading input from scf.in

     Current dimensions of program PWSCF are:
     Max number of different atomic species (ntypx) = 10
     Max number of k-points (npk) =  40000
     Max angular momentum in pseudopotentials (lmaxx) =  4
     Message from routine setup:
     using ibrav=0 with symmetry is DISCOURAGED, use correct ibrav instead
 
     K-points division:     npool     =       4
     Subspace diagonalization in iterative solution of the eigenvalue problem:
     a serial algorithm will be used

     Message from routine divide_et_impera:
     suboptimal parallelization: some nodes have no k-points
 
     G-vector sticks info
     --------------------
     sticks:   dense  smooth     PW     G-vecs:    dense   smooth      PW
     Sum        3691    3691   1003               479179   479179   66599
 
     Using Slab Decomposition
 


     bravais-lattice index     =            0
     lattice parameter (alat)  =      12.9767  a.u.
     unit-cell volume          =    4960.5953 (a.u.)^3
     number of atoms/cell      =            8
     number of atomic types    =            2
     number of electrons       =        70.00
     number of Kohn-Sham states=           78
     kinetic-energy cutoff     =      80.0000  Ry
     charge density cutoff     =     320.0000  Ry
     scf convergence threshold =      1.0E-09
     mixing beta               =       0.4000
     number of iterations used =            8  plain     mixing
     Exchange-correlation= PBE
                           (   1   4   3   4   0   0   0)
     Non magnetic calculation with spin-orbit


     GPU acceleration is ACTIVE.  4 visible GPUs per MPI rank


     GPU used by master process:

        Device Number: 0
        Device name: NVIDIA A100-SXM4-80GB
        Compute capability : 80
        Ratio of single to double precision performance  : 2
        Memory Clock Rate (KHz): 1593000
        Memory Bus Width (bits): 5120
        Peak Memory Bandwidth (GB/s): ******

     celldm(1)=  12.976749  celldm(2)=   0.000000  celldm(3)=   0.000000
     celldm(4)=   0.000000  celldm(5)=   0.000000  celldm(6)=   0.000000

     crystal axes: (cart. coord. in units of alat)
               a(1) = (   1.000000   0.000000   0.000000 )  
               a(2) = (  -0.500000   0.866025   0.000000 )  
               a(3) = (   0.000000   0.000000   2.621232 )  

     reciprocal axes: (cart. coord. in units 2 pi/alat)
               b(1) = (  1.000000  0.577350 -0.000000 )  
               b(2) = (  0.000000  1.154701  0.000000 )  
               b(3) = (  0.000000 -0.000000  0.381500 )  


     PseudoPot. # 1 for Cr read from file:
     ./Cr.upf
     MD5 check sum: e4755fb39f753e55e5d2a46de4395b17
     Pseudo is Norm-conserving + core correction, Zval = 14.0
     Generated using ONCVPSP code by D. R. Hamann
     Using radial grid of 1638 points, 10 beta functions with: 
                l(1) =   0
                l(2) =   0
                l(3) =   1
                l(4) =   1
                l(5) =   1
                l(6) =   1
                l(7) =   2
                l(8) =   2
                l(9) =   2
               l(10) =   2

     PseudoPot. # 2 for I  read from file:
     ./I.upf
     MD5 check sum: 301f7009ca0a2b18b0adf53dca02d42f
     Pseudo is Norm-conserving + core correction, Zval =  7.0
     Generated using ONCVPSP code by D. R. Hamann
     Using radial grid of 1210 points, 10 beta functions with: 
                l(1) =   0
                l(2) =   0
                l(3) =   1
                l(4) =   1
                l(5) =   1
                l(6) =   1
                l(7) =   2
                l(8) =   2
                l(9) =   2
               l(10) =   2

     atomic species   valence    mass     pseudopotential
     Cr               14.00    51.99600     Cr( 1.00)
     I                 7.00   126.90400     I ( 1.00)

      6 Sym. Ops., with inversion, found


                                    s                        frac. trans.

      isym =  1     identity                                     

 cryst.   s( 1) = (     1          0          0      )
                  (     0          1          0      )
                  (     0          0          1      )

 cart.    s( 1) = (  1.0000000  0.0000000  0.0000000 )
                  (  0.0000000  1.0000000  0.0000000 )
                  (  0.0000000  0.0000000  1.0000000 )


      isym =  2     120 deg rotation - cryst. axis [0,0,1]       

 cryst.   s( 2) = (     0          1          0      )
                  (    -1         -1          0      )
                  (     0          0          1      )

 cart.    s( 2) = ( -0.5000000 -0.8660255  0.0000000 )
                  (  0.8660253 -0.5000000  0.0000000 )
                  (  0.0000000  0.0000000  1.0000000 )


      isym =  3     120 deg rotation - cryst. axis [0,0,-1]      

 cryst.   s( 3) = (    -1         -1          0      )
                  (     1          0          0      )
                  (     0          0          1      )

 cart.    s( 3) = ( -0.5000000  0.8660255  0.0000000 )
                  ( -0.8660253 -0.5000000  0.0000000 )
                  (  0.0000000  0.0000000  1.0000000 )


      isym =  4     inversion                                    

 cryst.   s( 4) = (    -1          0          0      )
                  (     0         -1          0      )
                  (     0          0         -1      )

 cart.    s( 4) = ( -1.0000000  0.0000000  0.0000000 )
                  (  0.0000000 -1.0000000  0.0000000 )
                  (  0.0000000  0.0000000 -1.0000000 )


      isym =  5     inv. 120 deg rotation - cryst. axis [0,0,1]  

 cryst.   s( 5) = (     0         -1          0      )
                  (     1          1          0      )
                  (     0          0         -1      )

 cart.    s( 5) = (  0.5000000  0.8660255  0.0000000 )
                  ( -0.8660253  0.5000000  0.0000000 )
                  (  0.0000000  0.0000000 -1.0000000 )


      isym =  6     inv. 120 deg rotation - cryst. axis [0,0,-1] 

 cryst.   s( 6) = (     1          1          0      )
                  (    -1          0          0      )
                  (     0          0         -1      )

 cart.    s( 6) = (  0.5000000 -0.8660255  0.0000000 )
                  (  0.8660253  0.5000000  0.0000000 )
                  (  0.0000000  0.0000000 -1.0000000 )


   Cartesian axes

     site n.     atom                  positions (alat units)
         1        Cr     tau(   1) = (  -0.0000000   0.5773502   0.0009902  )
         2        Cr     tau(   2) = (   0.5000000   0.2886751   2.6202417  )
         3        I      tau(   3) = (  -0.1495050   0.8649890   2.3934629  )
         4        I      tau(   4) = (  -0.1743500   0.3040557   2.3934629  )
         5        I      tau(   5) = (   0.3238550   0.5630060   2.3934629  )
         6        I      tau(   6) = (   0.6495050   0.0010363   0.2277690  )
         7        I      tau(   7) = (   0.6743500   0.5619696   0.2277690  )
         8        I      tau(   8) = (   0.1761450   0.3030194   0.2277690  )

   Crystallographic axes

     site n.     atom                  positions (cryst. coord.)
         1        Cr     tau(   1) = (  0.3333333  0.6666667  0.0003778  )
         2        Cr     tau(   2) = (  0.6666667  0.3333333  0.9996222  )
         3        I      tau(   3) = (  0.3498967  0.9988033  0.9131061  )
         4        I      tau(   4) = (  0.0011967  0.3510934  0.9131061  )
         5        I      tau(   5) = (  0.6489066  0.6501033  0.9131061  )
         6        I      tau(   6) = (  0.6501033  0.0011967  0.0868939  )
         7        I      tau(   7) = (  0.9988033  0.6489066  0.0868939  )
         8        I      tau(   8) = (  0.3510934  0.3498967  0.0868939  )

     number of k points=     3
                       cart. coord. in units 2pi/alat
        k(    1) = (   0.0000000   0.0000000   0.0000000), wk =   0.1111111
        k(    2) = (   0.0000000   0.3849002   0.0000000), wk =   0.6666667
        k(    3) = (   0.3333333   0.5773503   0.0000000), wk =   0.2222222

                       cryst. coord.
        k(    1) = (   0.0000000   0.0000000   0.0000000), wk =   0.1111111
        k(    2) = (   0.0000000   0.3333333   0.0000000), wk =   0.6666667
        k(    3) = (   0.3333333   0.3333333   0.0000000), wk =   0.2222222

     Dense  grid:   479179 G-vectors     FFT dimensions: (  75,  75, 200)

     Dynamical RAM for                 wfc:     142.68 MB

     Dynamical RAM for     wfc (w. buffer):     142.68 MB

     Dynamical RAM for           str. fact:      14.62 MB

     Dynamical RAM for           local pot:       0.00 MB

     Dynamical RAM for          nlocal pot:     248.77 MB

     Dynamical RAM for                qrad:       7.52 MB

     Dynamical RAM for          rho,v,vnew:     190.74 MB

     Dynamical RAM for               rhoin:      63.58 MB

     Dynamical RAM for            rho*nmix:     467.95 MB

     Dynamical RAM for           G-vectors:      31.07 MB

     Dynamical RAM for          h,s,v(r/c):       4.46 MB

     Dynamical RAM for          <psi|beta>:       0.65 MB

     Dynamical RAM for                 psi:     570.72 MB

     Dynamical RAM for                hpsi:     570.72 MB

     Dynamical RAM for      wfcinit/wfcrot:     241.64 MB

     Estimated static dynamical RAM per process >     789.59 MB

     Estimated max dynamical RAM per process >       2.35 GB

     Estimated total dynamical RAM >       8.02 GB
 ----2D----2D----2D----2D----2D----2D----2D----2D----2D----2D----2D----2D
  The code is running with the 2D cutoff
  Please refer to:
  Sohier, T., Calandra, M., & Mauri, F. (2017), 
  Density functional perturbation theory for gated two-dimensional heterostructures:
  Theoretical developments and application to flexural phonons in graphene.
  Physical Review B, 96(7), 75448. https://doi.org/10.1103/PhysRevB.96.075448
 ----2D----2D----2D----2D----2D----2D----2D----2D----2D----2D----2D----2D

     Initial potential from superposition of free atoms

     starting charge      69.9966, renormalised to      70.0000

     negative rho (up, down):  4.398E-05 0.000E+00
     Starting wfcs are   88 randomized atomic wfcs

     total cpu time spent up to now is        1.2 secs

     per-process dynamical memory:   686.9 Mb

     Self-consistent Calculation
[tb_dev] Currently allocated     3.24E+00 Mbytes, locked:    0 /   4
[tb_pin] Currently allocated     0.00E+00 Mbytes, locked:    0 /   0

     iteration #  1     ecut=    80.00 Ry     beta= 0.40
     Davidson diagonalization with overlap

---- Real-time Memory Report at c_bands before calling an iterative solver
          1408 MiB given to the printing process from OS
           763 MiB allocation reported by mallinfo(arena+hblkhd)
        182532 MiB available memory on the node where the printing process lives
     GPU memory used/free/total (MiB): 2030 / 79122 / 81152
------------------
     ethr =  1.00E-02,  avg # of iterations =  2.0

     total cpu time spent up to now is        1.8 secs

     total energy              =    -510.37513004 Ry
     estimated scf accuracy    <       1.96011666 Ry
[tb_dev] Currently allocated     3.05E-05 Mbytes, locked:    0 /   1
[tb_pin] Currently allocated     0.00E+00 Mbytes, locked:    0 /   0

     iteration #  2     ecut=    80.00 Ry     beta= 0.40
     Davidson diagonalization with overlap

---- Real-time Memory Report at c_bands before calling an iterative solver
          1557 MiB given to the printing process from OS
           905 MiB allocation reported by mallinfo(arena+hblkhd)
        182265 MiB available memory on the node where the printing process lives
     GPU memory used/free/total (MiB): 3618 / 77534 / 81152
------------------
     ethr =  2.80E-03,  avg # of iterations =  5.0

     total cpu time spent up to now is        2.6 secs

     total energy              =    -508.98480281 Ry
     estimated scf accuracy    <      34.66096947 Ry
[tb_dev] Currently allocated     3.05E-05 Mbytes, locked:    0 /   1
[tb_pin] Currently allocated     0.00E+00 Mbytes, locked:    0 /   0

     iteration #  3     ecut=    80.00 Ry     beta= 0.40
     Davidson diagonalization with overlap

---- Real-time Memory Report at c_bands before calling an iterative solver
          1704 MiB given to the printing process from OS
          1440 MiB allocation reported by mallinfo(arena+hblkhd)
        182105 MiB available memory on the node where the printing process lives
     GPU memory used/free/total (MiB): 3724 / 77428 / 81152
------------------
     ethr =  2.80E-03,  avg # of iterations =  4.3

     total cpu time spent up to now is        3.2 secs

     total energy              =    -511.28050817 Ry
     estimated scf accuracy    <       0.40964542 Ry
[tb_dev] Currently allocated     3.05E-05 Mbytes, locked:    0 /   1
[tb_pin] Currently allocated     0.00E+00 Mbytes, locked:    0 /   0

     iteration #  4     ecut=    80.00 Ry     beta= 0.40
     Davidson diagonalization with overlap

---- Real-time Memory Report at c_bands before calling an iterative solver
          1868 MiB given to the printing process from OS
          1528 MiB allocation reported by mallinfo(arena+hblkhd)
        181932 MiB available memory on the node where the printing process lives
     GPU memory used/free/total (MiB): 3724 / 77428 / 81152
------------------
     ethr =  5.85E-04,  avg # of iterations =  2.3

     total cpu time spent up to now is        3.8 secs

     total energy              =    -511.30974237 Ry
     estimated scf accuracy    <       0.03406437 Ry
[tb_dev] Currently allocated     3.05E-05 Mbytes, locked:    0 /   1
[tb_pin] Currently allocated     0.00E+00 Mbytes, locked:    0 /   0

     iteration #  5     ecut=    80.00 Ry     beta= 0.40
     Davidson diagonalization with overlap

---- Real-time Memory Report at c_bands before calling an iterative solver
          1979 MiB given to the printing process from OS
          1615 MiB allocation reported by mallinfo(arena+hblkhd)
        181824 MiB available memory on the node where the printing process lives
     GPU memory used/free/total (MiB): 3728 / 77424 / 81152
------------------
     ethr =  4.87E-05,  avg # of iterations =  5.3

     total cpu time spent up to now is        4.6 secs

     total energy              =    -511.32036438 Ry
     estimated scf accuracy    <       0.01754485 Ry
[tb_dev] Currently allocated     3.05E-05 Mbytes, locked:    0 /   1
[tb_pin] Currently allocated     0.00E+00 Mbytes, locked:    0 /   0

     iteration #  6     ecut=    80.00 Ry     beta= 0.40
     Davidson diagonalization with overlap

---- Real-time Memory Report at c_bands before calling an iterative solver
          2093 MiB given to the printing process from OS
          1703 MiB allocation reported by mallinfo(arena+hblkhd)
        181710 MiB available memory on the node where the printing process lives
     GPU memory used/free/total (MiB): 3728 / 77424 / 81152
------------------
     ethr =  2.51E-05,  avg # of iterations =  2.3

     total cpu time spent up to now is        5.2 secs

     total energy              =    -511.32201589 Ry
     estimated scf accuracy    <       0.00042651 Ry
[tb_dev] Currently allocated     3.05E-05 Mbytes, locked:    0 /   1
[tb_pin] Currently allocated     0.00E+00 Mbytes, locked:    0 /   0

     iteration #  7     ecut=    80.00 Ry     beta= 0.40
     Davidson diagonalization with overlap

---- Real-time Memory Report at c_bands before calling an iterative solver
          2205 MiB given to the printing process from OS
          1762 MiB allocation reported by mallinfo(arena+hblkhd)
        181595 MiB available memory on the node where the printing process lives
     GPU memory used/free/total (MiB): 3734 / 77418 / 81152
------------------
     ethr =  6.09E-07,  avg # of iterations =  6.3

     total cpu time spent up to now is        6.0 secs

     total energy              =    -511.32233630 Ry
     estimated scf accuracy    <       0.00026021 Ry
[tb_dev] Currently allocated     3.05E-05 Mbytes, locked:    0 /   1
[tb_pin] Currently allocated     0.00E+00 Mbytes, locked:    0 /   0

     iteration #  8     ecut=    80.00 Ry     beta= 0.40
     Davidson diagonalization with overlap

---- Real-time Memory Report at c_bands before calling an iterative solver
          2350 MiB given to the printing process from OS
          1791 MiB allocation reported by mallinfo(arena+hblkhd)
        181456 MiB available memory on the node where the printing process lives
     GPU memory used/free/total (MiB): 3734 / 77418 / 81152
------------------
     ethr =  3.72E-07,  avg # of iterations =  1.0

     total cpu time spent up to now is        6.7 secs

     total energy              =    -511.32234581 Ry
     estimated scf accuracy    <       0.00004856 Ry
[tb_dev] Currently allocated     3.05E-05 Mbytes, locked:    0 /   1
[tb_pin] Currently allocated     0.00E+00 Mbytes, locked:    0 /   0

     iteration #  9     ecut=    80.00 Ry     beta= 0.40
     Davidson diagonalization with overlap

---- Real-time Memory Report at c_bands before calling an iterative solver
          2467 MiB given to the printing process from OS
          1849 MiB allocation reported by mallinfo(arena+hblkhd)
        181340 MiB available memory on the node where the printing process lives
     GPU memory used/free/total (MiB): 3734 / 77418 / 81152
------------------
     ethr =  6.94E-08,  avg # of iterations =  4.3

     total cpu time spent up to now is        7.4 secs

     total energy              =    -511.32235075 Ry
     estimated scf accuracy    <       0.00000295 Ry
[tb_dev] Currently allocated     3.05E-05 Mbytes, locked:    0 /   1
[tb_pin] Currently allocated     0.00E+00 Mbytes, locked:    0 /   0

     iteration # 10     ecut=    80.00 Ry     beta= 0.40
     Davidson diagonalization with overlap

---- Real-time Memory Report at c_bands before calling an iterative solver
          2583 MiB given to the printing process from OS
          1937 MiB allocation reported by mallinfo(arena+hblkhd)
        181223 MiB available memory on the node where the printing process lives
     GPU memory used/free/total (MiB): 3736 / 77416 / 81152
------------------
     ethr =  4.21E-09,  avg # of iterations =  6.0

     total cpu time spent up to now is        8.3 secs

     total energy              =    -511.32235181 Ry
     estimated scf accuracy    <       0.00000309 Ry
[tb_dev] Currently allocated     3.05E-05 Mbytes, locked:    0 /   1
[tb_pin] Currently allocated     0.00E+00 Mbytes, locked:    0 /   0

     iteration # 11     ecut=    80.00 Ry     beta= 0.40
     Davidson diagonalization with overlap

---- Real-time Memory Report at c_bands before calling an iterative solver
          2612 MiB given to the printing process from OS
          1967 MiB allocation reported by mallinfo(arena+hblkhd)
        181188 MiB available memory on the node where the printing process lives
     GPU memory used/free/total (MiB): 3736 / 77416 / 81152
------------------
     ethr =  4.21E-09,  avg # of iterations =  1.0

     total cpu time spent up to now is        8.9 secs

     total energy              =    -511.32235169 Ry
     estimated scf accuracy    <       0.00000104 Ry
[tb_dev] Currently allocated     3.05E-05 Mbytes, locked:    0 /   1
[tb_pin] Currently allocated     0.00E+00 Mbytes, locked:    0 /   0

     iteration # 12     ecut=    80.00 Ry     beta= 0.40
     Davidson diagonalization with overlap

---- Real-time Memory Report at c_bands before calling an iterative solver
          2614 MiB given to the printing process from OS
          1967 MiB allocation reported by mallinfo(arena+hblkhd)
        181191 MiB available memory on the node where the printing process lives
     GPU memory used/free/total (MiB): 3736 / 77416 / 81152
------------------
     ethr =  1.49E-09,  avg # of iterations =  3.3

     total cpu time spent up to now is        9.6 secs

     total energy              =    -511.32235185 Ry
     estimated scf accuracy    <       0.00000019 Ry
[tb_dev] Currently allocated     3.05E-05 Mbytes, locked:    0 /   1
[tb_pin] Currently allocated     0.00E+00 Mbytes, locked:    0 /   0

     iteration # 13     ecut=    80.00 Ry     beta= 0.40
     Davidson diagonalization with overlap

---- Real-time Memory Report at c_bands before calling an iterative solver
          2614 MiB given to the printing process from OS
          1967 MiB allocation reported by mallinfo(arena+hblkhd)
        181173 MiB available memory on the node where the printing process lives
     GPU memory used/free/total (MiB): 3736 / 77416 / 81152
------------------
     ethr =  2.65E-10,  avg # of iterations =  2.0

     total cpu time spent up to now is       10.3 secs

     total energy              =    -511.32235186 Ry
     estimated scf accuracy    <       0.00000004 Ry
[tb_dev] Currently allocated     3.05E-05 Mbytes, locked:    0 /   1
[tb_pin] Currently allocated     0.00E+00 Mbytes, locked:    0 /   0

     iteration # 14     ecut=    80.00 Ry     beta= 0.40
     Davidson diagonalization with overlap

---- Real-time Memory Report at c_bands before calling an iterative solver
          2614 MiB given to the printing process from OS
          1967 MiB allocation reported by mallinfo(arena+hblkhd)
        181179 MiB available memory on the node where the printing process lives
     GPU memory used/free/total (MiB): 3736 / 77416 / 81152
------------------
     ethr =  6.25E-11,  avg # of iterations =  5.7

     total cpu time spent up to now is       11.1 secs

     total energy              =    -511.32235186 Ry
     estimated scf accuracy    <          3.2E-09 Ry
[tb_dev] Currently allocated     3.05E-05 Mbytes, locked:    0 /   1
[tb_pin] Currently allocated     0.00E+00 Mbytes, locked:    0 /   0

     iteration # 15     ecut=    80.00 Ry     beta= 0.40
     Davidson diagonalization with overlap

---- Real-time Memory Report at c_bands before calling an iterative solver
          2641 MiB given to the printing process from OS
          1937 MiB allocation reported by mallinfo(arena+hblkhd)
        181199 MiB available memory on the node where the printing process lives
     GPU memory used/free/total (MiB): 3736 / 77416 / 81152
------------------
     ethr =  4.59E-12,  avg # of iterations =  6.0

     total cpu time spent up to now is       11.6 secs

     End of self-consistent calculation

          k = 0.0000 0.0000 0.0000 ( 59977 PWs)   bands (ev):

   -76.7254 -76.7254 -76.7251 -76.7251 -48.7788 -48.7788 -48.7773 -48.7773
   -47.7535 -47.7535 -47.7503 -47.7503 -47.7487 -47.7487 -47.7484 -47.7484
   -18.4427 -18.4427 -17.7244 -17.7244 -17.4176 -17.4176 -17.4155 -17.4155
   -17.3261 -17.3261 -17.3254 -17.3254  -9.9622  -9.9622  -9.5465  -9.5465
    -9.2165  -9.2165  -9.1562  -9.1562  -8.9975  -8.9975  -8.6340  -8.6340
    -8.5996  -8.5996  -8.1030  -8.1030  -7.8175  -7.8175  -7.7539  -7.7539
    -7.7062  -7.7062  -7.4917  -7.4917  -7.2488  -7.2488  -7.0331  -7.0331
    -6.5451  -6.5451  -6.3625  -6.3625  -5.9331  -5.9331  -5.4654  -5.4654
    -5.1198  -5.1198  -5.0350  -5.0350  -5.0307  -5.0307  -4.9269  -4.9269
    -4.7687  -4.7687  -4.7406  -4.7406  -3.7117  -3.7117

     occupation numbers 
     1.0000   1.0000   1.0000   1.0000   1.0000   1.0000   1.0000   1.0000
     1.0000   1.0000   1.0000   1.0000   1.0000   1.0000   1.0000   1.0000
     1.0000   1.0000   1.0000   1.0000   1.0000   1.0000   1.0000   1.0000
     1.0000   1.0000   1.0000   1.0000   1.0000   1.0000   1.0000   1.0000
     1.0000   1.0000   1.0000   1.0000   1.0000   1.0000   1.0000   1.0000
     1.0000   1.0000   1.0000   1.0000   1.0000   1.0000   1.0000   1.0000
     1.0000   1.0000   1.0000   1.0000   1.0000   1.0000   1.0000   1.0000
     1.0000   1.0000   1.0000   1.0000   1.0000   1.0000   1.0000   1.0000
     1.0000   1.0000   1.0000   1.0000   1.0000   1.0000   0.0000   0.0000
     0.0000   0.0000   0.0000   0.0000   0.0000   0.0000

          k = 0.0000 0.3849 0.0000 ( 59990 PWs)   bands (ev):

   -76.7253 -76.7253 -76.7252 -76.7252 -48.7785 -48.7785 -48.7776 -48.7776
   -47.7530 -47.7530 -47.7512 -47.7512 -47.7485 -47.7485 -47.7483 -47.7483
   -18.2270 -18.2270 -17.6875 -17.6875 -17.6029 -17.6029 -17.4970 -17.4970
   -17.3789 -17.3789 -17.3535 -17.3535  -9.9707  -9.9707  -9.4658  -9.4658
    -9.2594  -9.2594  -9.0937  -9.0937  -8.9534  -8.9534  -8.4170  -8.4170
    -8.2676  -8.2676  -7.9537  -7.9537  -7.8928  -7.8928  -7.6531  -7.6531
    -7.5310  -7.5309  -7.4130  -7.4129  -7.1344  -7.1344  -7.0148  -7.0148
    -6.7989  -6.7989  -6.6071  -6.6071  -6.3275  -6.3275  -5.9675  -5.9675
    -5.1663  -5.1663  -5.0121  -5.0121  -4.9298  -4.9298  -4.8183  -4.8183
    -4.7652  -4.7652  -4.6627  -4.6627  -3.7224  -3.7224

     occupation numbers 
     1.0000   1.0000   1.0000   1.0000   1.0000   1.0000   1.0000   1.0000
     1.0000   1.0000   1.0000   1.0000   1.0000   1.0000   1.0000   1.0000
     1.0000   1.0000   1.0000   1.0000   1.0000   1.0000   1.0000   1.0000
     1.0000   1.0000   1.0000   1.0000   1.0000   1.0000   1.0000   1.0000
     1.0000   1.0000   1.0000   1.0000   1.0000   1.0000   1.0000   1.0000
     1.0000   1.0000   1.0000   1.0000   1.0000   1.0000   1.0000   1.0000
     1.0000   1.0000   1.0000   1.0000   1.0000   1.0000   1.0000   1.0000
     1.0000   1.0000   1.0000   1.0000   1.0000   1.0000   1.0000   1.0000
     1.0000   1.0000   1.0000   1.0000   1.0000   1.0000   0.0000   0.0000
     0.0000   0.0000   0.0000   0.0000   0.0000   0.0000

          k = 0.3333 0.5774 0.0000 ( 59922 PWs)   bands (ev):

   -76.7253 -76.7253 -76.7253 -76.7253 -48.7781 -48.7781 -48.7781 -48.7781
   -47.7523 -47.7523 -47.7519 -47.7519 -47.7485 -47.7485 -47.7482 -47.7482
   -17.9286 -17.9286 -17.9274 -17.9274 -17.6341 -17.6341 -17.4608 -17.4608
   -17.4607 -17.4607 -17.3855 -17.3855  -9.6057  -9.6057  -9.5586  -9.5586
    -9.1447  -9.1447  -9.0614  -9.0614  -9.0116  -9.0115  -8.5977  -8.5977
    -8.3351  -8.3351  -8.3087  -8.3087  -7.8366  -7.8366  -7.7325  -7.7325
    -7.3456  -7.3456  -7.2288  -7.2288  -7.0186  -7.0186  -6.7920  -6.7920
    -6.7812  -6.7812  -6.5172  -6.5172  -6.3956  -6.3956  -6.2938  -6.2938
    -5.0236  -5.0236  -5.0031  -5.0031  -4.9832  -4.9832  -4.9175  -4.9175
    -4.7250  -4.7250  -4.6925  -4.6925  -3.6975  -3.6975

     occupation numbers 
     1.0000   1.0000   1.0000   1.0000   1.0000   1.0000   1.0000   1.0000
     1.0000   1.0000   1.0000   1.0000   1.0000   1.0000   1.0000   1.0000
     1.0000   1.0000   1.0000   1.0000   1.0000   1.0000   1.0000   1.0000
     1.0000   1.0000   1.0000   1.0000   1.0000   1.0000   1.0000   1.0000
     1.0000   1.0000   1.0000   1.0000   1.0000   1.0000   1.0000   1.0000
     1.0000   1.0000   1.0000   1.0000   1.0000   1.0000   1.0000   1.0000
     1.0000   1.0000   1.0000   1.0000   1.0000   1.0000   1.0000   1.0000
     1.0000   1.0000   1.0000   1.0000   1.0000   1.0000   1.0000   1.0000
     1.0000   1.0000   1.0000   1.0000   1.0000   1.0000   0.0000   0.0000
     0.0000   0.0000   0.0000   0.0000   0.0000   0.0000

     highest occupied, lowest unoccupied level (ev):    -4.9298   -4.9269

!    total energy              =    -511.32235186 Ry
     estimated scf accuracy    <          2.7E-10 Ry

     The total energy is the sum of the following terms:
     one-electron contribution =   -2652.14631576 Ry
     hartree contribution      =    1320.09389528 Ry
     xc contribution           =    -100.19770236 Ry
     ewald contribution        =     920.92777098 Ry

     convergence has been achieved in  15 iterations

     Writing all to output data dir ./CrI3.save/ :
     XML data file, charge density, pseudopotentials, collected wavefunctions
 
     init_run     :      0.65s CPU      0.99s WALL (       1 calls)
     electrons    :      9.59s CPU     10.45s WALL (       1 calls)

     Called by init_run:
     wfcinit      :      0.19s CPU      0.25s WALL (       1 calls)
     wfcinit:atom :      0.00s CPU      0.00s WALL (       1 calls)
     wfcinit:wfcr :      0.19s CPU      0.23s WALL (       1 calls)
     potinit      :      0.08s CPU      0.13s WALL (       1 calls)
     hinit0       :      0.23s CPU      0.21s WALL (       1 calls)

     Called by electrons:
     c_bands      :      4.98s CPU      5.27s WALL (      15 calls)
     sum_band     :      1.29s CPU      1.50s WALL (      15 calls)
     v_of_rho     :      0.31s CPU      0.37s WALL (      16 calls)
     v_h          :      0.08s CPU      0.09s WALL (      16 calls)
     v_xc         :      0.23s CPU      0.29s WALL (      16 calls)
     mix_rho      :      2.35s CPU      2.49s WALL (      15 calls)

     Called by c_bands:
     init_us_2    :      0.02s CPU      0.03s WALL (      31 calls)
     cegterg      :      4.35s CPU      4.40s WALL (      15 calls)

     Called by sum_band:
     sum_band:wei :      0.00s CPU      0.00s WALL (      15 calls)
                                        0.00s GPU  (      15 calls)
     sum_band:loo :      0.57s CPU      0.57s WALL (      15 calls)
                                        0.57s GPU  (      15 calls)
     sum_band:buf :      0.08s CPU      0.08s WALL (      15 calls)
                                        0.08s GPU  (      15 calls)
     sum_band:ini :      0.01s CPU      0.01s WALL (      15 calls)
                                        0.01s GPU  (      15 calls)

     Called by *egterg:
     cdiaghg      :      0.24s CPU      0.26s WALL (      75 calls)
                                        0.26s GPU  (      75 calls)
     cegterg:over :      0.10s CPU      0.10s WALL (      60 calls)
     cegterg:upda :      0.07s CPU      0.07s WALL (      60 calls)
     cegterg:last :      0.02s CPU      0.01s WALL (      15 calls)
     h_psi        :      3.99s CPU      4.07s WALL (      76 calls)
                                        4.06s GPU  (      76 calls)
     g_psi        :      0.00s CPU      0.01s WALL (      60 calls)
                                        0.01s GPU  (      60 calls)

     Called by h_psi:
     h_psi:calbec :      0.03s CPU      0.11s WALL (      76 calls)
                                        0.11s GPU  (      76 calls)
     vloc_psi     :      3.81s CPU      3.85s WALL (      76 calls)
                                        3.85s GPU  (      76 calls)
     add_vuspsi   :      0.02s CPU      0.07s WALL (      76 calls)
                                        0.07s GPU  (      76 calls)

     General routines
     calbec       :      0.03s CPU      0.05s WALL (      76 calls)
     fft          :      0.01s CPU      0.07s WALL (     250 calls)
                                        0.07s GPU  (     250 calls)
     ffts         :      0.00s CPU      0.01s WALL (      60 calls)
                                        0.01s GPU  (      60 calls)
     fftw         :      0.15s CPU      1.53s WALL (   14620 calls)
                                        1.43s GPU  (   14620 calls)
 
     Parallel routines
 
     PWSCF        :     10.50s CPU     11.98s WALL

 
   This run was terminated on:  11:19:41   7May2026            

=------------------------------------------------------------------------------=
   JOB DONE.
=------------------------------------------------------------------------------=
Warning: ieee_invalid is signaling
Warning: ieee_inexact is signaling
FORTRAN STOP
Warning: ieee_invalid is signaling
Warning: ieee_inexact is signaling
FORTRAN STOP
Warning: ieee_invalid is signaling
Warning: ieee_inexact is signaling
FORTRAN STOP
Warning: ieee_invalid is signaling
Warning: ieee_inexact is signaling
FORTRAN STOP
