
     Program PWSCF v.7.5 starts on 17Jun2026 at  5:33:18 

     This program is part of the open-source Quantum ESPRESSO suite
     for quantum simulation of materials; please cite
         "P. Giannozzi et al., J. Phys.:Condens. Matter 21 395502 (2009);
         "P. Giannozzi et al., J. Phys.:Condens. Matter 29 465901 (2017);
         "P. Giannozzi et al., J. Chem. Phys. 152 154105 (2020);
          URL http://www.quantum-espresso.org", 
     in publications or presentations arising from this work. More details at
     http://www.quantum-espresso.org/quote

     Parallel version (MPI & OpenMP), running on     128 processor cores
     Number of MPI processes:                 4
     Threads/MPI process:                    32

     MPI processes distributed on     1 nodes
     240667 MiB available memory on the printing compute node when the environment starts
 
     Waiting for input...
     Reading input from standard input

     Current dimensions of program PWSCF are:
     Max number of different atomic species (ntypx) = 10
     Max number of k-points (npk) =  40000
     Max angular momentum in pseudopotentials (lmaxx) =  4

     Atomic positions and unit cell read from directory:
     ./VI3.save/
 

     Fixed quantization axis for GGA:     0.000000    0.000000    1.000000
 
     K-points division:     npool     =       4
     Subspace diagonalization in iterative solution of the eigenvalue problem:
     a serial algorithm will be used

 
     G-vector sticks info
     --------------------
     sticks:   dense  smooth     PW     G-vecs:    dense   smooth      PW
     Sum        3679    3679    979               475783   475783   65975
 
     Using Slab Decomposition
 


     bravais-lattice index     =            0
     lattice parameter (alat)  =      12.9257  a.u.
     unit-cell volume          =    4921.6582 (a.u.)^3
     number of atoms/cell      =            8
     number of atomic types    =            2
     number of electrons       =        68.00
     number of Kohn-Sham states=          120
     kinetic-energy cutoff     =      80.0000  Ry
     charge density cutoff     =     320.0000  Ry
     Exchange-correlation= PBE
                           (   1   4   3   4   0   0   0)
     Noncollinear calculation with spin-orbit


     GPU acceleration is ACTIVE.  4 visible GPUs per MPI rank


     GPU used by master process:

        Device Number: 0
        Device name: NVIDIA A100-SXM4-40GB
        Compute capability : 80
        Ratio of single to double precision performance  : 2
        Memory Clock Rate (KHz): 1215000
        Memory Bus Width (bits): 5120
        Peak Memory Bandwidth (GB/s): ******
     Hubbard projectors: ortho-atomic
     Hubbard parameters of DFT+U (Dudarev formulation) in eV:
     U(V-3d) =  5.0000

     Internal variables: lda_plus_u = T, lda_plus_u_kind = 0

     Internal variables: orbital_resolved = F, hub_pot_fix = F, apply_U =  F

     celldm(1)=  12.925727  celldm(2)=   0.000000  celldm(3)=   0.000000
     celldm(4)=   0.000000  celldm(5)=   0.000000  celldm(6)=   0.000000

     crystal axes: (cart. coord. in units of alat)
               a(1) = (   1.000000   0.000000   0.000000 )  
               a(2) = (  -0.500000   0.866024   0.000000 )  
               a(3) = (   0.000000   0.000000   2.631579 )  

     reciprocal axes: (cart. coord. in units 2 pi/alat)
               b(1) = (  1.000000  0.577351 -0.000000 )  
               b(2) = (  0.000000  1.154702  0.000000 )  
               b(3) = (  0.000000 -0.000000  0.380000 )  


     PseudoPot. # 1 for V  read from file:
     ./V.upf
     MD5 check sum: f3eaf2f8b12999b28b8a4e139b19fe14
     Pseudo is Norm-conserving + core correction, Zval = 13.0
     Generated using ONCVPSP code by D. R. Hamann
     Using radial grid of 1536 points, 10 beta functions with: 
                l(1) =   0
                l(2) =   0
                l(3) =   1
                l(4) =   1
                l(5) =   1
                l(6) =   1
                l(7) =   2
                l(8) =   2
                l(9) =   2
               l(10) =   2

     PseudoPot. # 2 for I  read from file:
     ./I.upf
     MD5 check sum: 301f7009ca0a2b18b0adf53dca02d42f
     Pseudo is Norm-conserving + core correction, Zval =  7.0
     Generated using ONCVPSP code by D. R. Hamann
     Using radial grid of 1210 points, 10 beta functions with: 
                l(1) =   0
                l(2) =   0
                l(3) =   1
                l(4) =   1
                l(5) =   1
                l(6) =   1
                l(7) =   2
                l(8) =   2
                l(9) =   2
               l(10) =   2

     atomic species   valence    mass     pseudopotential
     V                13.00    50.94200     V ( 1.00)
     I                 7.00   126.90400     I ( 1.00)

     No symmetry found


                                    s                        frac. trans.

      isym =  1     identity                                     

 Time Reversal             0
 cryst.   s( 1) = (     1          0          0      )
                  (     0          1          0      )
                  (     0          0          1      )

 cart.    s( 1) = (  1.0000000 -0.0000000  0.0000000 )
                  (  0.0000000  1.0000000  0.0000000 )
                  (  0.0000000  0.0000000  1.0000000 )


   Cartesian axes

     site n.     atom                  positions (alat units)
         1        V      tau(   1) = (   0.0000058   0.5773465   0.0011577  )
         2        V      tau(   2) = (   0.4999942   0.2886779   2.6304212  )
         3        I      tau(   3) = (  -0.1578966   0.8655247   2.3849343  )
         4        I      tau(   4) = (  -0.1706086   0.2965244   2.3849306  )
         5        I      tau(   5) = (   0.3285072   0.5700039   2.3849413  )
         6        I      tau(   6) = (   0.6578967   0.0004997   0.2466446  )
         7        I      tau(   7) = (   0.6706085   0.5695001   0.2466483  )
         8        I      tau(   8) = (   0.1714928   0.2960205   0.2466376  )

   Crystallographic axes

     site n.     atom                  positions (cryst. coord.)
         1        V      tau(   1) = (  0.3333373  0.6666631  0.0004399  )
         2        V      tau(   2) = (  0.6666627  0.3333369  0.9995601  )
         3        I      tau(   3) = (  0.3418149  0.9994230  0.9062750  )
         4        I      tau(   4) = (  0.0005901  0.3423972  0.9062736  )
         5        I      tau(   5) = (  0.6575995  0.6581846  0.9062777  )
         6        I      tau(   6) = (  0.6581851  0.0005770  0.0937249  )
         7        I      tau(   7) = (  0.9994099  0.6576028  0.0937263  )
         8        I      tau(   8) = (  0.3424005  0.3418154  0.0937223  )

     number of k points=   121
                       cart. coord. in units 2pi/alat
        k(    1) = (   0.0000000   0.0000000   0.0000000), wk =   0.0082645
        k(    2) = (   0.0125000   0.0072169   0.0000000), wk =   0.0082645
        k(    3) = (   0.0250000   0.0144338   0.0000000), wk =   0.0082645
        k(    4) = (   0.0375000   0.0216507   0.0000000), wk =   0.0082645
        k(    5) = (   0.0500000   0.0288675   0.0000000), wk =   0.0082645
        k(    6) = (   0.0625000   0.0360844   0.0000000), wk =   0.0082645
        k(    7) = (   0.0750000   0.0433013   0.0000000), wk =   0.0082645
        k(    8) = (   0.0875000   0.0505182   0.0000000), wk =   0.0082645
        k(    9) = (   0.1000000   0.0577351   0.0000000), wk =   0.0082645
        k(   10) = (   0.1125000   0.0649520   0.0000000), wk =   0.0082645
        k(   11) = (   0.1250000   0.0721689   0.0000000), wk =   0.0082645
        k(   12) = (   0.1375000   0.0793858   0.0000000), wk =   0.0082645
        k(   13) = (   0.1500000   0.0866026   0.0000000), wk =   0.0082645
        k(   14) = (   0.1625000   0.0938195   0.0000000), wk =   0.0082645
        k(   15) = (   0.1750000   0.1010364   0.0000000), wk =   0.0082645
        k(   16) = (   0.1875000   0.1082533   0.0000000), wk =   0.0082645
        k(   17) = (   0.2000000   0.1154702   0.0000000), wk =   0.0082645
        k(   18) = (   0.2125000   0.1226871   0.0000000), wk =   0.0082645
        k(   19) = (   0.2250000   0.1299040   0.0000000), wk =   0.0082645
        k(   20) = (   0.2375000   0.1371208   0.0000000), wk =   0.0082645
        k(   21) = (   0.2500000   0.1443377   0.0000000), wk =   0.0082645
        k(   22) = (   0.2625000   0.1515546   0.0000000), wk =   0.0082645
        k(   23) = (   0.2750000   0.1587715   0.0000000), wk =   0.0082645
        k(   24) = (   0.2875000   0.1659884   0.0000000), wk =   0.0082645
        k(   25) = (   0.3000000   0.1732053   0.0000000), wk =   0.0082645
        k(   26) = (   0.3125000   0.1804222   0.0000000), wk =   0.0082645
        k(   27) = (   0.3250000   0.1876391   0.0000000), wk =   0.0082645
        k(   28) = (   0.3375000   0.1948559   0.0000000), wk =   0.0082645
        k(   29) = (   0.3500000   0.2020728   0.0000000), wk =   0.0082645
        k(   30) = (   0.3625000   0.2092897   0.0000000), wk =   0.0082645
        k(   31) = (   0.3750000   0.2165066   0.0000000), wk =   0.0082645
        k(   32) = (   0.3875000   0.2237235   0.0000000), wk =   0.0082645
        k(   33) = (   0.4000000   0.2309404   0.0000000), wk =   0.0082645
        k(   34) = (   0.4125000   0.2381573   0.0000000), wk =   0.0082645
        k(   35) = (   0.4250000   0.2453741   0.0000000), wk =   0.0082645
        k(   36) = (   0.4375000   0.2525910   0.0000000), wk =   0.0082645
        k(   37) = (   0.4500000   0.2598079   0.0000000), wk =   0.0082645
        k(   38) = (   0.4625000   0.2670248   0.0000000), wk =   0.0082645
        k(   39) = (   0.4750000   0.2742417   0.0000000), wk =   0.0082645
        k(   40) = (   0.4875000   0.2814586   0.0000000), wk =   0.0082645
        k(   41) = (   0.5000000   0.2886755   0.0000000), wk =   0.0082645
        k(   42) = (   0.4958333   0.2958924   0.0000000), wk =   0.0082645
        k(   43) = (   0.4916667   0.3031092   0.0000000), wk =   0.0082645
        k(   44) = (   0.4875000   0.3103261   0.0000000), wk =   0.0082645
        k(   45) = (   0.4833333   0.3175430   0.0000000), wk =   0.0082645
        k(   46) = (   0.4791667   0.3247599   0.0000000), wk =   0.0082645
        k(   47) = (   0.4750000   0.3319768   0.0000000), wk =   0.0082645
        k(   48) = (   0.4708333   0.3391937   0.0000000), wk =   0.0082645
        k(   49) = (   0.4666667   0.3464106   0.0000000), wk =   0.0082645
        k(   50) = (   0.4625000   0.3536274   0.0000000), wk =   0.0082645
        k(   51) = (   0.4583333   0.3608443   0.0000000), wk =   0.0082645
        k(   52) = (   0.4541667   0.3680612   0.0000000), wk =   0.0082645
        k(   53) = (   0.4500000   0.3752781   0.0000000), wk =   0.0082645
        k(   54) = (   0.4458333   0.3824950   0.0000000), wk =   0.0082645
        k(   55) = (   0.4416667   0.3897119   0.0000000), wk =   0.0082645
        k(   56) = (   0.4375000   0.3969288   0.0000000), wk =   0.0082645
        k(   57) = (   0.4333333   0.4041456   0.0000000), wk =   0.0082645
        k(   58) = (   0.4291667   0.4113625   0.0000000), wk =   0.0082645
        k(   59) = (   0.4250000   0.4185794   0.0000000), wk =   0.0082645
        k(   60) = (   0.4208333   0.4257963   0.0000000), wk =   0.0082645
        k(   61) = (   0.4166667   0.4330132   0.0000000), wk =   0.0082645
        k(   62) = (   0.4125000   0.4402301   0.0000000), wk =   0.0082645
        k(   63) = (   0.4083333   0.4474470   0.0000000), wk =   0.0082645
        k(   64) = (   0.4041667   0.4546639   0.0000000), wk =   0.0082645
        k(   65) = (   0.4000000   0.4618807   0.0000000), wk =   0.0082645
        k(   66) = (   0.3958333   0.4690976   0.0000000), wk =   0.0082645
        k(   67) = (   0.3916667   0.4763145   0.0000000), wk =   0.0082645
        k(   68) = (   0.3875000   0.4835314   0.0000000), wk =   0.0082645
        k(   69) = (   0.3833333   0.4907483   0.0000000), wk =   0.0082645
        k(   70) = (   0.3791667   0.4979652   0.0000000), wk =   0.0082645
        k(   71) = (   0.3750000   0.5051821   0.0000000), wk =   0.0082645
        k(   72) = (   0.3708333   0.5123989   0.0000000), wk =   0.0082645
        k(   73) = (   0.3666667   0.5196158   0.0000000), wk =   0.0082645
        k(   74) = (   0.3625000   0.5268327   0.0000000), wk =   0.0082645
        k(   75) = (   0.3583333   0.5340496   0.0000000), wk =   0.0082645
        k(   76) = (   0.3541667   0.5412665   0.0000000), wk =   0.0082645
        k(   77) = (   0.3500000   0.5484834   0.0000000), wk =   0.0082645
        k(   78) = (   0.3458333   0.5557003   0.0000000), wk =   0.0082645
        k(   79) = (   0.3416667   0.5629172   0.0000000), wk =   0.0082645
        k(   80) = (   0.3375000   0.5701340   0.0000000), wk =   0.0082645
        k(   81) = (   0.3333333   0.5773509   0.0000000), wk =   0.0082645
        k(   82) = (   0.3250000   0.5629172   0.0000000), wk =   0.0082645
        k(   83) = (   0.3166667   0.5484834   0.0000000), wk =   0.0082645
        k(   84) = (   0.3083333   0.5340496   0.0000000), wk =   0.0082645
        k(   85) = (   0.3000000   0.5196158   0.0000000), wk =   0.0082645
        k(   86) = (   0.2916667   0.5051821   0.0000000), wk =   0.0082645
        k(   87) = (   0.2833333   0.4907483   0.0000000), wk =   0.0082645
        k(   88) = (   0.2750000   0.4763145   0.0000000), wk =   0.0082645
        k(   89) = (   0.2666667   0.4618807   0.0000000), wk =   0.0082645
        k(   90) = (   0.2583333   0.4474470   0.0000000), wk =   0.0082645
        k(   91) = (   0.2500000   0.4330132   0.0000000), wk =   0.0082645
        k(   92) = (   0.2416667   0.4185794   0.0000000), wk =   0.0082645
        k(   93) = (   0.2333333   0.4041456   0.0000000), wk =   0.0082645
        k(   94) = (   0.2250000   0.3897119   0.0000000), wk =   0.0082645
        k(   95) = (   0.2166667   0.3752781   0.0000000), wk =   0.0082645
        k(   96) = (   0.2083333   0.3608443   0.0000000), wk =   0.0082645
        k(   97) = (   0.2000000   0.3464106   0.0000000), wk =   0.0082645
        k(   98) = (   0.1916667   0.3319768   0.0000000), wk =   0.0082645
        k(   99) = (   0.1833333   0.3175430   0.0000000), wk =   0.0082645
        k(  100) = (   0.1750000   0.3031092   0.0000000), wk =   0.0082645
        k(  101) = (   0.1666667   0.2886755   0.0000000), wk =   0.0082645
        k(  102) = (   0.1583333   0.2742417   0.0000000), wk =   0.0082645
        k(  103) = (   0.1500000   0.2598079   0.0000000), wk =   0.0082645
        k(  104) = (   0.1416667   0.2453741   0.0000000), wk =   0.0082645
        k(  105) = (   0.1333333   0.2309404   0.0000000), wk =   0.0082645
        k(  106) = (   0.1250000   0.2165066   0.0000000), wk =   0.0082645
        k(  107) = (   0.1166667   0.2020728   0.0000000), wk =   0.0082645
        k(  108) = (   0.1083333   0.1876391   0.0000000), wk =   0.0082645
        k(  109) = (   0.1000000   0.1732053   0.0000000), wk =   0.0082645
        k(  110) = (   0.0916667   0.1587715   0.0000000), wk =   0.0082645
        k(  111) = (   0.0833333   0.1443377   0.0000000), wk =   0.0082645
        k(  112) = (   0.0750000   0.1299040   0.0000000), wk =   0.0082645
        k(  113) = (   0.0666667   0.1154702   0.0000000), wk =   0.0082645
        k(  114) = (   0.0583333   0.1010364   0.0000000), wk =   0.0082645
        k(  115) = (   0.0500000   0.0866026   0.0000000), wk =   0.0082645
        k(  116) = (   0.0416667   0.0721689   0.0000000), wk =   0.0082645
        k(  117) = (   0.0333333   0.0577351   0.0000000), wk =   0.0082645
        k(  118) = (   0.0250000   0.0433013   0.0000000), wk =   0.0082645
        k(  119) = (   0.0166667   0.0288675   0.0000000), wk =   0.0082645
        k(  120) = (   0.0083333   0.0144338   0.0000000), wk =   0.0082645
        k(  121) = (   0.0000000   0.0000000   0.0000000), wk =   0.0082645

                       cryst. coord.
        k(    1) = (   0.0000000   0.0000000   0.0000000), wk =   0.0082645
        k(    2) = (   0.0125000  -0.0000000   0.0000000), wk =   0.0082645
        k(    3) = (   0.0250000  -0.0000000   0.0000000), wk =   0.0082645
        k(    4) = (   0.0375000   0.0000000   0.0000000), wk =   0.0082645
        k(    5) = (   0.0500000  -0.0000000   0.0000000), wk =   0.0082645
        k(    6) = (   0.0625000  -0.0000000   0.0000000), wk =   0.0082645
        k(    7) = (   0.0750000   0.0000000   0.0000000), wk =   0.0082645
        k(    8) = (   0.0875000   0.0000000   0.0000000), wk =   0.0082645
        k(    9) = (   0.1000000  -0.0000000   0.0000000), wk =   0.0082645
        k(   10) = (   0.1125000  -0.0000000   0.0000000), wk =   0.0082645
        k(   11) = (   0.1250000  -0.0000000   0.0000000), wk =   0.0082645
        k(   12) = (   0.1375000  -0.0000000   0.0000000), wk =   0.0082645
        k(   13) = (   0.1500000   0.0000000   0.0000000), wk =   0.0082645
        k(   14) = (   0.1625000  -0.0000000   0.0000000), wk =   0.0082645
        k(   15) = (   0.1750000   0.0000000   0.0000000), wk =   0.0082645
        k(   16) = (   0.1875000  -0.0000000   0.0000000), wk =   0.0082645
        k(   17) = (   0.2000000  -0.0000000   0.0000000), wk =   0.0082645
        k(   18) = (   0.2125000  -0.0000000   0.0000000), wk =   0.0082645
        k(   19) = (   0.2250000  -0.0000000   0.0000000), wk =   0.0082645
        k(   20) = (   0.2375000  -0.0000000   0.0000000), wk =   0.0082645
        k(   21) = (   0.2500000  -0.0000000   0.0000000), wk =   0.0082645
        k(   22) = (   0.2625000  -0.0000000   0.0000000), wk =   0.0082645
        k(   23) = (   0.2750000  -0.0000000   0.0000000), wk =   0.0082645
        k(   24) = (   0.2875000   0.0000000   0.0000000), wk =   0.0082645
        k(   25) = (   0.3000000   0.0000000   0.0000000), wk =   0.0082645
        k(   26) = (   0.3125000   0.0000000   0.0000000), wk =   0.0082645
        k(   27) = (   0.3250000  -0.0000000   0.0000000), wk =   0.0082645
        k(   28) = (   0.3375000  -0.0000000   0.0000000), wk =   0.0082645
        k(   29) = (   0.3500000   0.0000000   0.0000000), wk =   0.0082645
        k(   30) = (   0.3625000   0.0000000   0.0000000), wk =   0.0082645
        k(   31) = (   0.3750000  -0.0000000   0.0000000), wk =   0.0082645
        k(   32) = (   0.3875000  -0.0000000   0.0000000), wk =   0.0082645
        k(   33) = (   0.4000000  -0.0000000   0.0000000), wk =   0.0082645
        k(   34) = (   0.4125000   0.0000000   0.0000000), wk =   0.0082645
        k(   35) = (   0.4250000  -0.0000000   0.0000000), wk =   0.0082645
        k(   36) = (   0.4375000  -0.0000000   0.0000000), wk =   0.0082645
        k(   37) = (   0.4500000  -0.0000000   0.0000000), wk =   0.0082645
        k(   38) = (   0.4625000   0.0000000   0.0000000), wk =   0.0082645
        k(   39) = (   0.4750000  -0.0000000   0.0000000), wk =   0.0082645
        k(   40) = (   0.4875000  -0.0000000   0.0000000), wk =   0.0082645
        k(   41) = (   0.5000000  -0.0000000   0.0000000), wk =   0.0082645
        k(   42) = (   0.4958333   0.0083333   0.0000000), wk =   0.0082645
        k(   43) = (   0.4916667   0.0166667   0.0000000), wk =   0.0082645
        k(   44) = (   0.4875000   0.0250000   0.0000000), wk =   0.0082645
        k(   45) = (   0.4833333   0.0333333   0.0000000), wk =   0.0082645
        k(   46) = (   0.4791667   0.0416667   0.0000000), wk =   0.0082645
        k(   47) = (   0.4750000   0.0500000   0.0000000), wk =   0.0082645
        k(   48) = (   0.4708333   0.0583333   0.0000000), wk =   0.0082645
        k(   49) = (   0.4666667   0.0666667   0.0000000), wk =   0.0082645
        k(   50) = (   0.4625000   0.0750000   0.0000000), wk =   0.0082645
        k(   51) = (   0.4583333   0.0833333   0.0000000), wk =   0.0082645
        k(   52) = (   0.4541667   0.0916667   0.0000000), wk =   0.0082645
        k(   53) = (   0.4500000   0.1000000   0.0000000), wk =   0.0082645
        k(   54) = (   0.4458333   0.1083333   0.0000000), wk =   0.0082645
        k(   55) = (   0.4416667   0.1166667   0.0000000), wk =   0.0082645
        k(   56) = (   0.4375000   0.1250000   0.0000000), wk =   0.0082645
        k(   57) = (   0.4333333   0.1333333   0.0000000), wk =   0.0082645
        k(   58) = (   0.4291667   0.1416667   0.0000000), wk =   0.0082645
        k(   59) = (   0.4250000   0.1500000   0.0000000), wk =   0.0082645
        k(   60) = (   0.4208333   0.1583333   0.0000000), wk =   0.0082645
        k(   61) = (   0.4166667   0.1666667   0.0000000), wk =   0.0082645
        k(   62) = (   0.4125000   0.1750000   0.0000000), wk =   0.0082645
        k(   63) = (   0.4083333   0.1833333   0.0000000), wk =   0.0082645
        k(   64) = (   0.4041667   0.1916667   0.0000000), wk =   0.0082645
        k(   65) = (   0.4000000   0.2000000   0.0000000), wk =   0.0082645
        k(   66) = (   0.3958333   0.2083333   0.0000000), wk =   0.0082645
        k(   67) = (   0.3916667   0.2166667   0.0000000), wk =   0.0082645
        k(   68) = (   0.3875000   0.2250000   0.0000000), wk =   0.0082645
        k(   69) = (   0.3833333   0.2333333   0.0000000), wk =   0.0082645
        k(   70) = (   0.3791667   0.2416667   0.0000000), wk =   0.0082645
        k(   71) = (   0.3750000   0.2500000   0.0000000), wk =   0.0082645
        k(   72) = (   0.3708333   0.2583333   0.0000000), wk =   0.0082645
        k(   73) = (   0.3666667   0.2666667   0.0000000), wk =   0.0082645
        k(   74) = (   0.3625000   0.2750000   0.0000000), wk =   0.0082645
        k(   75) = (   0.3583333   0.2833333   0.0000000), wk =   0.0082645
        k(   76) = (   0.3541667   0.2916667   0.0000000), wk =   0.0082645
        k(   77) = (   0.3500000   0.3000000   0.0000000), wk =   0.0082645
        k(   78) = (   0.3458333   0.3083333   0.0000000), wk =   0.0082645
        k(   79) = (   0.3416667   0.3166667   0.0000000), wk =   0.0082645
        k(   80) = (   0.3375000   0.3250000   0.0000000), wk =   0.0082645
        k(   81) = (   0.3333333   0.3333333   0.0000000), wk =   0.0082645
        k(   82) = (   0.3250000   0.3250000   0.0000000), wk =   0.0082645
        k(   83) = (   0.3166667   0.3166667   0.0000000), wk =   0.0082645
        k(   84) = (   0.3083333   0.3083333   0.0000000), wk =   0.0082645
        k(   85) = (   0.3000000   0.3000000   0.0000000), wk =   0.0082645
        k(   86) = (   0.2916667   0.2916667   0.0000000), wk =   0.0082645
        k(   87) = (   0.2833333   0.2833333   0.0000000), wk =   0.0082645
        k(   88) = (   0.2750000   0.2750000   0.0000000), wk =   0.0082645
        k(   89) = (   0.2666667   0.2666667   0.0000000), wk =   0.0082645
        k(   90) = (   0.2583333   0.2583333   0.0000000), wk =   0.0082645
        k(   91) = (   0.2500000   0.2500000   0.0000000), wk =   0.0082645
        k(   92) = (   0.2416667   0.2416667   0.0000000), wk =   0.0082645
        k(   93) = (   0.2333333   0.2333333   0.0000000), wk =   0.0082645
        k(   94) = (   0.2250000   0.2250000   0.0000000), wk =   0.0082645
        k(   95) = (   0.2166667   0.2166667   0.0000000), wk =   0.0082645
        k(   96) = (   0.2083333   0.2083333   0.0000000), wk =   0.0082645
        k(   97) = (   0.2000000   0.2000000   0.0000000), wk =   0.0082645
        k(   98) = (   0.1916667   0.1916667   0.0000000), wk =   0.0082645
        k(   99) = (   0.1833333   0.1833333   0.0000000), wk =   0.0082645
        k(  100) = (   0.1750000   0.1750000   0.0000000), wk =   0.0082645
        k(  101) = (   0.1666667   0.1666667   0.0000000), wk =   0.0082645
        k(  102) = (   0.1583333   0.1583333   0.0000000), wk =   0.0082645
        k(  103) = (   0.1500000   0.1500000   0.0000000), wk =   0.0082645
        k(  104) = (   0.1416667   0.1416667   0.0000000), wk =   0.0082645
        k(  105) = (   0.1333333   0.1333333   0.0000000), wk =   0.0082645
        k(  106) = (   0.1250000   0.1250000   0.0000000), wk =   0.0082645
        k(  107) = (   0.1166667   0.1166667   0.0000000), wk =   0.0082645
        k(  108) = (   0.1083333   0.1083333   0.0000000), wk =   0.0082645
        k(  109) = (   0.1000000   0.1000000   0.0000000), wk =   0.0082645
        k(  110) = (   0.0916667   0.0916667   0.0000000), wk =   0.0082645
        k(  111) = (   0.0833333   0.0833333   0.0000000), wk =   0.0082645
        k(  112) = (   0.0750000   0.0750000   0.0000000), wk =   0.0082645
        k(  113) = (   0.0666667   0.0666667   0.0000000), wk =   0.0082645
        k(  114) = (   0.0583333   0.0583333   0.0000000), wk =   0.0082645
        k(  115) = (   0.0500000   0.0500000   0.0000000), wk =   0.0082645
        k(  116) = (   0.0416667   0.0416667   0.0000000), wk =   0.0082645
        k(  117) = (   0.0333333   0.0333333   0.0000000), wk =   0.0082645
        k(  118) = (   0.0250000   0.0250000   0.0000000), wk =   0.0082645
        k(  119) = (   0.0166667   0.0166667   0.0000000), wk =   0.0082645
        k(  120) = (   0.0083333   0.0083333   0.0000000), wk =   0.0082645
        k(  121) = (   0.0000000   0.0000000   0.0000000), wk =   0.0082645

     Dense  grid:   475783 G-vectors     FFT dimensions: (  75,  75, 200)

     Dynamical RAM for                 wfc:     217.79 MB

     Dynamical RAM for     wfc (w. buffer):    6969.14 MB

     Dynamical RAM for             U proj.:      79.85 MB

     Dynamical RAM for  U proj. (w. buff.):    2555.35 MB

     Dynamical RAM for           str. fact:      14.52 MB

     Dynamical RAM for           local pot:       0.00 MB

     Dynamical RAM for          nlocal pot:     246.82 MB

     Dynamical RAM for                qrad:       7.52 MB

     Dynamical RAM for          rho,v,vnew:     190.12 MB

     Dynamical RAM for           G-vectors:      30.85 MB

     Dynamical RAM for          h,s,v(r/c):      10.55 MB

     Dynamical RAM for          <psi|beta>:       1.00 MB

     Dynamical RAM for                 psi:     871.14 MB

     Dynamical RAM for                hpsi:     871.14 MB

     Dynamical RAM for      wfcinit/wfcrot:     327.01 MB

     Estimated static dynamical RAM per process >       9.87 GB

     Estimated max dynamical RAM per process >      11.58 GB

     Estimated total dynamical RAM >      46.32 GB
 ----2D----2D----2D----2D----2D----2D----2D----2D----2D----2D----2D----2D
  The code is running with the 2D cutoff
  Please refer to:
  Sohier, T., Calandra, M., & Mauri, F. (2017), 
  Density functional perturbation theory for gated two-dimensional heterostructures:
  Theoretical developments and application to flexural phonons in graphene.
  Physical Review B, 96(7), 75448. https://doi.org/10.1103/PhysRevB.96.075448
 ----2D----2D----2D----2D----2D----2D----2D----2D----2D----2D----2D----2D
     Generating pointlists ...
     new r_m :   0.1695 (alat units)  2.1907 (a.u.) for type    1
     new r_m :   0.1695 (alat units)  2.1907 (a.u.) for type    2

     The potential is recalculated from file :
     ./VI3.save/charge-density


     negative rho (up, down):  0.000E+00 3.911E-04

     HUBBARD ENERGY =    0.0000  (Ry)

     STARTING HUBBARD OCCUPATIONS:

     ================= HUBBARD OCCUPATIONS ================
     ------------------------ ATOM    1 ------------------------
     Tr[ns(  1)] (up, down, total) =   0.00037  1.99963  2.00000
     eigenvalues:
      -0.000 -0.000 -0.000 -0.000  0.000  0.000  0.000  0.000  1.000  1.000
     eigenvectors (columns):
       0.005  0.325 -0.354  0.003  0.056 -0.143 -0.199 -0.002  0.004  0.010
      -0.000 -0.004  0.079 -0.005  0.868 -0.307  0.065  0.000  0.001  0.003
       0.001 -0.189 -0.531  0.003  0.320  0.470  0.090  0.002 -0.004  0.000
      -0.003  0.090  0.396 -0.005  0.244 -0.191  0.015  0.002 -0.002 -0.004
      -0.011 -0.412  0.197 -0.002  0.068  0.335  0.589  0.005 -0.005  0.001
       0.000  0.001 -0.006 -0.404 -0.000  0.001  0.000  0.000 -0.000  0.000
       0.480 -0.006  0.003 -0.000 -0.003 -0.004  0.014 -0.129  0.317  0.713
      -0.115  0.002  0.004 -0.000  0.005  0.015 -0.003 -0.534  0.744 -0.369
      -0.729  0.002  0.004 -0.000 -0.000  0.007 -0.015  0.198  0.207  0.463
      -0.218 -0.001  0.002 -0.000  0.001  0.002 -0.004 -0.806 -0.502  0.225
     occupations, | n_(i1, i2)^(sigma1, sigma2) |:
       0.000  0.000  0.000  0.000  0.000  0.000  0.009  0.009  0.005  0.005
       0.000  0.000  0.000  0.000  0.000  0.000  0.003  0.003  0.002  0.002
       0.000  0.000  0.000  0.000  0.000  0.000  0.003  0.003  0.002  0.002
       0.000  0.000  0.000  0.000  0.000  0.000  0.004  0.004  0.003  0.003
       0.000  0.000  0.000  0.000  0.000  0.000  0.004  0.004  0.003  0.003
       0.000  0.000  0.000  0.000  0.000  0.000  0.000  0.000  0.000  0.000
       0.009  0.003  0.003  0.004  0.004  0.000  0.698  0.049  0.456  0.022
       0.009  0.003  0.003  0.004  0.004  0.000  0.049  0.698  0.022  0.456
       0.005  0.002  0.002  0.003  0.003  0.000  0.456  0.022  0.302  0.049
       0.005  0.002  0.002  0.003  0.003  0.000  0.022  0.456  0.049  0.302
     Atomic magnetic moment mx, my, mz =    -0.000004    0.000011   -1.999264
     ------------------------ ATOM    2 ------------------------
     Tr[ns(  2)] (up, down, total) =   0.00037  1.99963  2.00000
     eigenvalues:
      -0.000 -0.000 -0.000  0.000  0.000  0.000  0.000  0.000  1.000  1.000
     eigenvectors (columns):
      -0.347 -0.123  0.311  0.000 -0.102 -0.376 -0.000  0.006  0.012  0.002
      -0.301 -0.052 -0.309  0.002 -0.679 -0.102  0.000  0.000  0.003  0.000
       0.165 -0.129 -0.090 -0.008 -0.309  0.531  0.003 -0.006 -0.000  0.004
       0.310 -0.389  0.150 -0.001 -0.323 -0.165  0.002 -0.003 -0.004 -0.001
       0.266 -0.504 -0.334  0.002  0.176  0.056  0.004 -0.004 -0.000  0.005
       0.001 -0.000  0.004  0.751  0.001  0.002  0.000 -0.000 -0.000  0.000
       0.005  0.002 -0.001 -0.000  0.001 -0.002  0.057 -0.524  0.824  0.107
      -0.001 -0.003  0.001  0.000 -0.003  0.011 -0.541 -0.077  0.116 -0.821
       0.011 -0.004 -0.002  0.000 -0.001  0.008 -0.084  0.795  0.536  0.068
       0.001 -0.001  0.000 -0.000 -0.001 -0.001 -0.831 -0.088 -0.070  0.545
     occupations, | n_(i1, i2)^(sigma1, sigma2) |:
       0.000  0.000  0.000  0.000  0.000  0.000  0.009  0.009  0.005  0.005
       0.000  0.000  0.000  0.000  0.000  0.000  0.003  0.003  0.002  0.002
       0.000  0.000  0.000  0.000  0.000  0.000  0.003  0.003  0.002  0.002
       0.000  0.000  0.000  0.000  0.000  0.000  0.004  0.004  0.003  0.003
       0.000  0.000  0.000  0.000  0.000  0.000  0.004  0.004  0.003  0.003
       0.000  0.000  0.000  0.000  0.000  0.000  0.000  0.000  0.000  0.000
       0.009  0.003  0.003  0.004  0.004  0.000  0.698  0.049  0.456  0.022
       0.009  0.003  0.003  0.004  0.004  0.000  0.049  0.698  0.022  0.456
       0.005  0.002  0.002  0.003  0.003  0.000  0.456  0.022  0.302  0.049
       0.005  0.002  0.002  0.003  0.003  0.000  0.022  0.456  0.049  0.302
     Atomic magnetic moment mx, my, mz =    -0.000007    0.000002   -1.999264

     Number of occupied Hubbard levels =    4.0000

     Atomic wfc used for Hubbard projectors are orthogonalized

     Starting wfcs are   88 randomized atomic wfcs +   32 random wfcs

     Band Structure Calculation
     Davidson diagonalization with overlap

     Computing kpt #:     1  of    31 on this pool
     total cpu time spent up to now is       10.8 secs

     Computing kpt #:     2  of    31 on this pool
     total cpu time spent up to now is       17.5 secs

     Computing kpt #:     3  of    31 on this pool
     total cpu time spent up to now is       23.6 secs

     Computing kpt #:     4  of    31 on this pool
     total cpu time spent up to now is       30.2 secs

     Computing kpt #:     5  of    31 on this pool
     total cpu time spent up to now is       37.3 secs

     Computing kpt #:     6  of    31 on this pool
     total cpu time spent up to now is       44.3 secs

     Computing kpt #:     7  of    31 on this pool
     total cpu time spent up to now is       50.8 secs

     Computing kpt #:     8  of    31 on this pool
     total cpu time spent up to now is       57.8 secs

     Computing kpt #:     9  of    31 on this pool
     total cpu time spent up to now is       64.7 secs

     Computing kpt #:    10  of    31 on this pool
     total cpu time spent up to now is       71.5 secs

     Computing kpt #:    11  of    31 on this pool
     total cpu time spent up to now is       78.2 secs

     Computing kpt #:    12  of    31 on this pool
     total cpu time spent up to now is       85.2 secs

     Computing kpt #:    13  of    31 on this pool
     total cpu time spent up to now is       91.2 secs

     Computing kpt #:    14  of    31 on this pool
     total cpu time spent up to now is       98.4 secs

     Computing kpt #:    15  of    31 on this pool
     total cpu time spent up to now is      105.3 secs

     Computing kpt #:    16  of    31 on this pool
     total cpu time spent up to now is      111.4 secs

     Computing kpt #:    17  of    31 on this pool
     total cpu time spent up to now is      118.3 secs

     Computing kpt #:    18  of    31 on this pool
     total cpu time spent up to now is      125.2 secs

     Computing kpt #:    19  of    31 on this pool
     total cpu time spent up to now is      132.0 secs

     Computing kpt #:    20  of    31 on this pool
     total cpu time spent up to now is      138.8 secs

     Computing kpt #:    21  of    31 on this pool
     total cpu time spent up to now is      145.6 secs

     Computing kpt #:    22  of    31 on this pool
     total cpu time spent up to now is      152.4 secs

     Computing kpt #:    23  of    31 on this pool
     total cpu time spent up to now is      159.2 secs

     Computing kpt #:    24  of    31 on this pool
     total cpu time spent up to now is      166.0 secs

     Computing kpt #:    25  of    31 on this pool
     total cpu time spent up to now is      172.9 secs

     Computing kpt #:    26  of    31 on this pool
     total cpu time spent up to now is      179.9 secs

     Computing kpt #:    27  of    31 on this pool
     total cpu time spent up to now is      186.7 secs

     Computing kpt #:    28  of    31 on this pool
     total cpu time spent up to now is      193.6 secs

     Computing kpt #:    29  of    31 on this pool
     total cpu time spent up to now is      203.9 secs

     Computing kpt #:    30  of    31 on this pool
     total cpu time spent up to now is      213.1 secs

     Computing kpt #:    31  of    31 on this pool
     total cpu time spent up to now is      220.9 secs

     ethr =  1.47E-09,  avg # of iterations = 40.8

     total cpu time spent up to now is      220.9 secs

     End of band structure calculation

          k = 0.0000 0.0000 0.0000 ( 59461 PWs)   bands (ev):

   -73.4619 -73.4614 -71.3728 -71.3723 -47.5890 -47.5851 -47.2965 -47.2954
   -46.9701 -46.9658 -45.3669 -45.3622 -45.0708 -45.0693 -44.8947 -44.8894
   -18.4811 -18.4571 -17.8928 -17.8858 -17.6015 -17.6002 -17.5133 -17.5124
   -17.4185 -17.4168 -17.3383 -17.3376 -11.5770 -11.5650 -11.2973 -11.2688
   -10.1849 -10.0139  -9.8787  -9.7323  -9.3188  -9.2412  -9.1458  -9.1341
    -9.1042  -8.8678  -8.7576  -8.7543  -8.5448  -8.4824  -8.2247  -8.1726
    -7.9830  -7.8633  -7.5002  -7.4638  -7.4491  -7.4365  -7.3208  -7.1564
    -6.8328  -6.6906  -6.5901  -6.3528  -6.2467  -6.1539  -6.0937  -6.0904
    -6.0148  -5.6248  -5.5112  -5.5038  -5.1705  -5.1542  -5.0606  -5.0475
    -4.9963  -4.7714  -4.0794  -4.0240  -4.0114  -3.9996  -3.8483  -3.8002
    -2.4044  -2.3985  -2.3852  -2.2535  -1.3746  -1.3471  -1.1955  -0.9512
    -0.4701  -0.3541   0.0926   0.1182   0.2848   0.3505   0.3611   0.4142
     0.5262   0.5444   0.6007   0.6031   0.8281   0.8295   0.9406   1.0281
     1.8060   1.9192   2.2732   2.2894   2.3982   2.4145   2.4496   2.4685
     2.7882   2.7930   2.8347   2.8791   2.9540   2.9928   2.9963   3.0130

     occupation numbers 
     1.0000   1.0000   1.0000   1.0000   1.0000   1.0000   1.0000   1.0000
     1.0000   1.0000   1.0000   1.0000   1.0000   1.0000   1.0000   1.0000
     1.0000   1.0000   1.0000   1.0000   1.0000   1.0000   1.0000   1.0000
     1.0000   1.0000   1.0000   1.0000   1.0000   1.0000   1.0000   1.0000
     1.0000   1.0000   1.0000   1.0000   1.0000   1.0000   1.0000   1.0000
     1.0000   1.0000   1.0000   1.0000   1.0000   1.0000   1.0000   1.0000
     1.0000   1.0000   1.0000   1.0000   1.0000   1.0000   1.0000   1.0000
     1.0000   1.0000   1.0000   1.0000   1.0000   1.0000   1.0000   1.0000
     1.0000   1.0000   1.0000   1.0000   0.0000   0.0000   0.0000   0.0000
     0.0000   0.0000   0.0000   0.0000   0.0000   0.0000   0.0000   0.0000
     0.0000   0.0000   0.0000   0.0000   0.0000   0.0000   0.0000   0.0000
     0.0000   0.0000   0.0000   0.0000   0.0000   0.0000   0.0000   0.0000
     0.0000   0.0000   0.0000   0.0000   0.0000   0.0000   0.0000   0.0000
     0.0000   0.0000   0.0000   0.0000   0.0000   0.0000   0.0000   0.0000
     0.0000   0.0000   0.0000   0.0000   0.0000   0.0000   0.0000   0.0000

          k = 0.0125 0.0072 0.0000 ( 59505 PWs)   bands (ev):

   -73.4619 -73.4614 -71.3728 -71.3723 -47.5890 -47.5851 -47.2965 -47.2954
   -46.9701 -46.9658 -45.3669 -45.3622 -45.0708 -45.0693 -44.8947 -44.8894
   -18.4808 -18.4568 -17.8927 -17.8856 -17.6016 -17.6003 -17.5135 -17.5126
   -17.4189 -17.4172 -17.3383 -17.3376 -11.5773 -11.5653 -11.2971 -11.2687
   -10.1850 -10.0143  -9.8786  -9.7323  -9.3184  -9.2409  -9.1481  -9.1365
    -9.1019  -8.8688  -8.7582  -8.7531  -8.5424  -8.4804  -8.2224  -8.1703
    -7.9820  -7.8624  -7.5009  -7.4641  -7.4520  -7.4350  -7.3192  -7.1562
    -6.8333  -6.6914  -6.5908  -6.3524  -6.2467  -6.1549  -6.0950  -6.0914
    -6.0164  -5.6241  -5.5132  -5.5052  -5.1703  -5.1534  -5.0610  -5.0476
    -4.9967  -4.7728  -4.0791  -4.0258  -4.0101  -3.9986  -3.8484  -3.8003
    -2.4089  -2.3942  -2.3855  -2.2539  -1.3728  -1.3468  -1.1937  -0.9509
    -0.4671  -0.3510   0.0929   0.1187   0.2819   0.3495   0.3606   0.4129
     0.5256   0.5437   0.6007   0.6067   0.8269   0.8317   0.9420   1.0295
     1.8071   1.9214   2.2718   2.2895   2.3968   2.4147   2.4508   2.4701
     2.7864   2.7887   2.8309   2.8768   2.9401   2.9884   2.9952   3.0120

     occupation numbers 
     1.0000   1.0000   1.0000   1.0000   1.0000   1.0000   1.0000   1.0000
     1.0000   1.0000   1.0000   1.0000   1.0000   1.0000   1.0000   1.0000
     1.0000   1.0000   1.0000   1.0000   1.0000   1.0000   1.0000   1.0000
     1.0000   1.0000   1.0000   1.0000   1.0000   1.0000   1.0000   1.0000
     1.0000   1.0000   1.0000   1.0000   1.0000   1.0000   1.0000   1.0000
     1.0000   1.0000   1.0000   1.0000   1.0000   1.0000   1.0000   1.0000
     1.0000   1.0000   1.0000   1.0000   1.0000   1.0000   1.0000   1.0000
     1.0000   1.0000   1.0000   1.0000   1.0000   1.0000   1.0000   1.0000
     1.0000   1.0000   1.0000   1.0000   0.0000   0.0000   0.0000   0.0000
     0.0000   0.0000   0.0000   0.0000   0.0000   0.0000   0.0000   0.0000
     0.0000   0.0000   0.0000   0.0000   0.0000   0.0000   0.0000   0.0000
     0.0000   0.0000   0.0000   0.0000   0.0000   0.0000   0.0000   0.0000
     0.0000   0.0000   0.0000   0.0000   0.0000   0.0000   0.0000   0.0000
     0.0000   0.0000   0.0000   0.0000   0.0000   0.0000   0.0000   0.0000
     0.0000   0.0000   0.0000   0.0000   0.0000   0.0000   0.0000   0.0000

          k = 0.0250 0.0144 0.0000 ( 59523 PWs)   bands (ev):

   -73.4619 -73.4614 -71.3728 -71.3723 -47.5890 -47.5851 -47.2965 -47.2954
   -46.9701 -46.9658 -45.3669 -45.3623 -45.0708 -45.0693 -44.8947 -44.8894
   -18.4798 -18.4558 -17.8923 -17.8848 -17.6020 -17.6005 -17.5143 -17.5131
   -17.4202 -17.4184 -17.3383 -17.3376 -11.5780 -11.5660 -11.2967 -11.2683
   -10.1852 -10.0152  -9.8781  -9.7320  -9.3172  -9.2400  -9.1548  -9.1419
    -9.0967  -8.8716  -8.7601  -8.7498  -8.5354  -8.4744  -8.2159  -8.1635
    -7.9791  -7.8596  -7.5030  -7.4653  -7.4582  -7.4324  -7.3146  -7.1555
    -6.8350  -6.6937  -6.5927  -6.3515  -6.2469  -6.1578  -6.0987  -6.0945
    -6.0211  -5.6223  -5.5191  -5.5094  -5.1694  -5.1508  -5.0620  -5.0479
    -4.9977  -4.7770  -4.0785  -4.0296  -4.0078  -3.9955  -3.8487  -3.8005
    -2.4155  -2.3882  -2.3862  -2.2550  -1.3674  -1.3460  -1.1882  -0.9500
    -0.4583  -0.3417   0.0940   0.1199   0.2732   0.3463   0.3598   0.4093
     0.5233   0.5427   0.5982   0.6192   0.8216   0.8398   0.9461   1.0337
     1.8105   1.9279   2.2627   2.2948   2.3885   2.4192   2.4545   2.4750
     2.7758   2.7812   2.8198   2.8695   2.9110   2.9679   2.9797   3.0177

     occupation numbers 
     1.0000   1.0000   1.0000   1.0000   1.0000   1.0000   1.0000   1.0000
     1.0000   1.0000   1.0000   1.0000   1.0000   1.0000   1.0000   1.0000
     1.0000   1.0000   1.0000   1.0000   1.0000   1.0000   1.0000   1.0000
     1.0000   1.0000   1.0000   1.0000   1.0000   1.0000   1.0000   1.0000
     1.0000   1.0000   1.0000   1.0000   1.0000   1.0000   1.0000   1.0000
     1.0000   1.0000   1.0000   1.0000   1.0000   1.0000   1.0000   1.0000
     1.0000   1.0000   1.0000   1.0000   1.0000   1.0000   1.0000   1.0000
     1.0000   1.0000   1.0000   1.0000   1.0000   1.0000   1.0000   1.0000
     1.0000   1.0000   1.0000   1.0000   0.0000   0.0000   0.0000   0.0000
     0.0000   0.0000   0.0000   0.0000   0.0000   0.0000   0.0000   0.0000
     0.0000   0.0000   0.0000   0.0000   0.0000   0.0000   0.0000   0.0000
     0.0000   0.0000   0.0000   0.0000   0.0000   0.0000   0.0000   0.0000
     0.0000   0.0000   0.0000   0.0000   0.0000   0.0000   0.0000   0.0000
     0.0000   0.0000   0.0000   0.0000   0.0000   0.0000   0.0000   0.0000
     0.0000   0.0000   0.0000   0.0000   0.0000   0.0000   0.0000   0.0000

          k = 0.0375 0.0217 0.0000 ( 59519 PWs)   bands (ev):

   -73.4619 -73.4615 -71.3728 -71.3723 -47.5890 -47.5851 -47.2965 -47.2954
   -46.9701 -46.9658 -45.3669 -45.3623 -45.0708 -45.0693 -44.8947 -44.8895
   -18.4781 -18.4541 -17.8918 -17.8836 -17.6026 -17.6009 -17.5159 -17.5136
   -17.4225 -17.4200 -17.3383 -17.3376 -11.5793 -11.5673 -11.2959 -11.2676
   -10.1857 -10.0168  -9.8773  -9.7316  -9.3154  -9.2385  -9.1648  -9.1489
    -9.0907  -8.8754  -8.7627  -8.7453  -8.5240  -8.4643  -8.2054  -8.1524
    -7.9743  -7.8551  -7.5066  -7.4709  -7.4621  -7.4302  -7.3075  -7.1544
    -6.8377  -6.6975  -6.5958  -6.3501  -6.2474  -6.1626  -6.1047  -6.0997
    -6.0286  -5.6193  -5.5291  -5.5157  -5.1681  -5.1468  -5.0639  -5.0484
    -4.9994  -4.7839  -4.0776  -4.0339  -4.0058  -3.9906  -3.8491  -3.8009
    -2.4226  -2.3876  -2.3820  -2.2568  -1.3585  -1.3446  -1.1792  -0.9485
    -0.4437  -0.3264   0.0958   0.1220   0.2592   0.3398   0.3594   0.4048
     0.5176   0.5439   0.5938   0.6385   0.8130   0.8529   0.9529   1.0407
     1.8161   1.9383   2.2442   2.3074   2.3711   2.4302   2.4610   2.4830
     2.7550   2.7716   2.8014   2.8561   2.8756   2.9387   2.9487   3.0197

     occupation numbers 
     1.0000   1.0000   1.0000   1.0000   1.0000   1.0000   1.0000   1.0000
     1.0000   1.0000   1.0000   1.0000   1.0000   1.0000   1.0000   1.0000
     1.0000   1.0000   1.0000   1.0000   1.0000   1.0000   1.0000   1.0000
     1.0000   1.0000   1.0000   1.0000   1.0000   1.0000   1.0000   1.0000
     1.0000   1.0000   1.0000   1.0000   1.0000   1.0000   1.0000   1.0000
     1.0000   1.0000   1.0000   1.0000   1.0000   1.0000   1.0000   1.0000
     1.0000   1.0000   1.0000   1.0000   1.0000   1.0000   1.0000   1.0000
     1.0000   1.0000   1.0000   1.0000   1.0000   1.0000   1.0000   1.0000
     1.0000   1.0000   1.0000   1.0000   0.0000   0.0000   0.0000   0.0000
     0.0000   0.0000   0.0000   0.0000   0.0000   0.0000   0.0000   0.0000
     0.0000   0.0000   0.0000   0.0000   0.0000   0.0000   0.0000   0.0000
     0.0000   0.0000   0.0000   0.0000   0.0000   0.0000   0.0000   0.0000
     0.0000   0.0000   0.0000   0.0000   0.0000   0.0000   0.0000   0.0000
     0.0000   0.0000   0.0000   0.0000   0.0000   0.0000   0.0000   0.0000
     0.0000   0.0000   0.0000   0.0000   0.0000   0.0000   0.0000   0.0000

          k = 0.0500 0.0289 0.0000 ( 59517 PWs)   bands (ev):

   -73.4619 -73.4615 -71.3728 -71.3723 -47.5890 -47.5851 -47.2965 -47.2954
   -46.9701 -46.9658 -45.3669 -45.3623 -45.0708 -45.0693 -44.8947 -44.8895
   -18.4757 -18.4517 -17.8910 -17.8818 -17.6036 -17.6014 -17.5182 -17.5142
   -17.4259 -17.4222 -17.3383 -17.3377 -11.5812 -11.5690 -11.2948 -11.2667
   -10.1862 -10.0189  -9.8763  -9.7311  -9.3130  -9.2367  -9.1769  -9.1573
    -9.0847  -8.8795  -8.7657  -8.7402  -8.5086  -8.4500  -8.1914  -8.1371
    -7.9677  -7.8488  -7.5118  -7.4806  -7.4631  -7.4286  -7.2985  -7.1529
    -6.8414  -6.7025  -6.6001  -6.3487  -6.2487  -6.1692  -6.1125  -6.1072
    -6.0384  -5.6156  -5.5430  -5.5238  -5.1662  -5.1416  -5.0665  -5.0489
    -5.0017  -4.7933  -4.0765  -4.0381  -4.0039  -3.9845  -3.8497  -3.8014
    -2.4298  -2.3895  -2.3761  -2.2590  -1.3463  -1.3426  -1.1667  -0.9464
    -0.4236  -0.3053   0.0983   0.1248   0.2411   0.3303   0.3576   0.4018
     0.5081   0.5485   0.5877   0.6625   0.8013   0.8701   0.9623   1.0504
     1.8235   1.9522   2.2183   2.3257   2.3464   2.4466   2.4699   2.4938
     2.7267   2.7564   2.7760   2.8287   2.8430   2.9046   2.9075   3.0096

     occupation numbers 
     1.0000   1.0000   1.0000   1.0000   1.0000   1.0000   1.0000   1.0000
     1.0000   1.0000   1.0000   1.0000   1.0000   1.0000   1.0000   1.0000
     1.0000   1.0000   1.0000   1.0000   1.0000   1.0000   1.0000   1.0000
     1.0000   1.0000   1.0000   1.0000   1.0000   1.0000   1.0000   1.0000
     1.0000   1.0000   1.0000   1.0000   1.0000   1.0000   1.0000   1.0000
     1.0000   1.0000   1.0000   1.0000   1.0000   1.0000   1.0000   1.0000
     1.0000   1.0000   1.0000   1.0000   1.0000   1.0000   1.0000   1.0000
     1.0000   1.0000   1.0000   1.0000   1.0000   1.0000   1.0000   1.0000
     1.0000   1.0000   1.0000   1.0000   0.0000   0.0000   0.0000   0.0000
     0.0000   0.0000   0.0000   0.0000   0.0000   0.0000   0.0000   0.0000
     0.0000   0.0000   0.0000   0.0000   0.0000   0.0000   0.0000   0.0000
     0.0000   0.0000   0.0000   0.0000   0.0000   0.0000   0.0000   0.0000
     0.0000   0.0000   0.0000   0.0000   0.0000   0.0000   0.0000   0.0000
     0.0000   0.0000   0.0000   0.0000   0.0000   0.0000   0.0000   0.0000
     0.0000   0.0000   0.0000   0.0000   0.0000   0.0000   0.0000   0.0000

          k = 0.0625 0.0361 0.0000 ( 59523 PWs)   bands (ev):

   -73.4619 -73.4615 -71.3728 -71.3723 -47.5890 -47.5851 -47.2965 -47.2954
   -46.9701 -46.9658 -45.3668 -45.3623 -45.0708 -45.0693 -44.8947 -44.8895
   -18.4727 -18.4487 -17.8900 -17.8795 -17.6049 -17.6020 -17.5212 -17.5149
   -17.4304 -17.4247 -17.3384 -17.3378 -11.5835 -11.5710 -11.2935 -11.2656
   -10.1869 -10.0215  -9.8749  -9.7304  -9.3103  -9.2348  -9.1901  -9.1670
    -9.0790  -8.8834  -8.7685  -8.7347  -8.4896  -8.4317  -8.1742  -8.1180
    -7.9595  -7.8410  -7.5186  -7.4915  -7.4636  -7.4273  -7.2881  -7.1512
    -6.8461  -6.7085  -6.6055  -6.3478  -6.2514  -6.1774  -6.1219  -6.1168
    -6.0498  -5.6117  -5.5604  -5.5331  -5.1639  -5.1357  -5.0699  -5.0497
    -5.0044  -4.8049  -4.0755  -4.0419  -4.0021  -3.9775  -3.8505  -3.8020
    -2.4371  -2.3921  -2.3704  -2.2615  -1.3404  -1.3306  -1.1509  -0.9439
    -0.3982  -0.2788   0.1015   0.1285   0.2200   0.3181   0.3512   0.4039
     0.4954   0.5564   0.5800   0.6899   0.7870   0.8907   0.9740   1.0626
     1.8326   1.9689   2.1864   2.3144   2.3499   2.4669   2.4809   2.5067
     2.6913   2.7323   2.7444   2.7874   2.8131   2.8599   2.8699   2.9616

     occupation numbers 
     1.0000   1.0000   1.0000   1.0000   1.0000   1.0000   1.0000   1.0000
     1.0000   1.0000   1.0000   1.0000   1.0000   1.0000   1.0000   1.0000
     1.0000   1.0000   1.0000   1.0000   1.0000   1.0000   1.0000   1.0000
     1.0000   1.0000   1.0000   1.0000   1.0000   1.0000   1.0000   1.0000
     1.0000   1.0000   1.0000   1.0000   1.0000   1.0000   1.0000   1.0000
     1.0000   1.0000   1.0000   1.0000   1.0000   1.0000   1.0000   1.0000
     1.0000   1.0000   1.0000   1.0000   1.0000   1.0000   1.0000   1.0000
     1.0000   1.0000   1.0000   1.0000   1.0000   1.0000   1.0000   1.0000
     1.0000   1.0000   1.0000   1.0000   0.0000   0.0000   0.0000   0.0000
     0.0000   0.0000   0.0000   0.0000   0.0000   0.0000   0.0000   0.0000
     0.0000   0.0000   0.0000   0.0000   0.0000   0.0000   0.0000   0.0000
     0.0000   0.0000   0.0000   0.0000   0.0000   0.0000   0.0000   0.0000
     0.0000   0.0000   0.0000   0.0000   0.0000   0.0000   0.0000   0.0000
     0.0000   0.0000   0.0000   0.0000   0.0000   0.0000   0.0000   0.0000
     0.0000   0.0000   0.0000   0.0000   0.0000   0.0000   0.0000   0.0000

          k = 0.0750 0.0433 0.0000 ( 59526 PWs)   bands (ev):

   -73.4619 -73.4615 -71.3728 -71.3723 -47.5889 -47.5852 -47.2965 -47.2954
   -46.9701 -46.9658 -45.3668 -45.3623 -45.0708 -45.0693 -44.8946 -44.8895
   -18.4690 -18.4450 -17.8887 -17.8768 -17.6065 -17.6027 -17.5249 -17.5158
   -17.4357 -17.4277 -17.3386 -17.3380 -11.5863 -11.5734 -11.2921 -11.2644
   -10.1877 -10.0244  -9.8733  -9.7295  -9.3075  -9.2332  -9.2039  -9.1776
    -9.0736  -8.8870  -8.7703  -8.7290  -8.4676  -8.4096  -8.1545  -8.0953
    -7.9497  -7.8318  -7.5275  -7.5024  -7.4640  -7.4263  -7.2768  -7.1494
    -6.8517  -6.7152  -6.6120  -6.3480  -6.2563  -6.1873  -6.1325  -6.1280
    -6.0621  -5.6079  -5.5808  -5.5430  -5.1610  -5.1295  -5.0739  -5.0506
    -5.0074  -4.8184  -4.0749  -4.0451  -4.0000  -3.9701  -3.8513  -3.8028
    -2.4444  -2.3953  -2.3649  -2.2641  -1.3376  -1.3120  -1.1319  -0.9409
    -0.3679  -0.2473   0.1054   0.1329   0.1972   0.3038   0.3394   0.4118
     0.4803   0.5658   0.5725   0.7195   0.7705   0.9140   0.9881   1.0773
     1.8429   1.9875   2.1495   2.2779   2.3774   2.4859   2.4973   2.5206
     2.6497   2.6946   2.7074   2.7454   2.7752   2.8097   2.8377   2.9072

     occupation numbers 
     1.0000   1.0000   1.0000   1.0000   1.0000   1.0000   1.0000   1.0000
     1.0000   1.0000   1.0000   1.0000   1.0000   1.0000   1.0000   1.0000
     1.0000   1.0000   1.0000   1.0000   1.0000   1.0000   1.0000   1.0000
     1.0000   1.0000   1.0000   1.0000   1.0000   1.0000   1.0000   1.0000
     1.0000   1.0000   1.0000   1.0000   1.0000   1.0000   1.0000   1.0000
     1.0000   1.0000   1.0000   1.0000   1.0000   1.0000   1.0000   1.0000
     1.0000   1.0000   1.0000   1.0000   1.0000   1.0000   1.0000   1.0000
     1.0000   1.0000   1.0000   1.0000   1.0000   1.0000   1.0000   1.0000
     1.0000   1.0000   1.0000   1.0000   0.0000   0.0000   0.0000   0.0000
     0.0000   0.0000   0.0000   0.0000   0.0000   0.0000   0.0000   0.0000
     0.0000   0.0000   0.0000   0.0000   0.0000   0.0000   0.0000   0.0000
     0.0000   0.0000   0.0000   0.0000   0.0000   0.0000   0.0000   0.0000
     0.0000   0.0000   0.0000   0.0000   0.0000   0.0000   0.0000   0.0000
     0.0000   0.0000   0.0000   0.0000   0.0000   0.0000   0.0000   0.0000
     0.0000   0.0000   0.0000   0.0000   0.0000   0.0000   0.0000   0.0000

          k = 0.0875 0.0505 0.0000 ( 59532 PWs)   bands (ev):

   -73.4619 -73.4615 -71.3728 -71.3723 -47.5889 -47.5852 -47.2965 -47.2954
   -46.9701 -46.9658 -45.3668 -45.3623 -45.0708 -45.0693 -44.8946 -44.8895
   -18.4646 -18.4406 -17.8873 -17.8736 -17.6084 -17.6034 -17.5292 -17.5169
   -17.4420 -17.4311 -17.3390 -17.3384 -11.5895 -11.5759 -11.2905 -11.2631
   -10.1886 -10.0276  -9.8714  -9.7284  -9.3049  -9.2331  -9.2167  -9.1887
    -9.0684  -8.8900  -8.7707  -8.7226  -8.4429  -8.3842  -8.1326  -8.0694
    -7.9386  -7.8213  -7.5386  -7.5126  -7.4644  -7.4255  -7.2648  -7.1476
    -6.8580  -6.7222  -6.6195  -6.3503  -6.2641  -6.1992  -6.1441  -6.1396
    -6.0743  -5.6055  -5.6034  -5.5528  -5.1578  -5.1238  -5.0781  -5.0520
    -5.0104  -4.8335  -4.0750  -4.0476  -3.9977  -3.9623  -3.8523  -3.8036
    -2.4518  -2.3993  -2.3596  -2.2665  -1.3346  -1.2906  -1.1099  -0.9376
    -0.3331  -0.2111   0.1100   0.1378   0.1736   0.2878   0.3240   0.4237
     0.4636   0.5587   0.5830   0.7455   0.7574   0.9394   1.0041   1.0943
     1.8537   2.0071   2.1084   2.2366   2.4079   2.4947   2.5208   2.5341
     2.6053   2.6461   2.6644   2.7011   2.7336   2.7616   2.8050   2.8551

     occupation numbers 
     1.0000   1.0000   1.0000   1.0000   1.0000   1.0000   1.0000   1.0000
     1.0000   1.0000   1.0000   1.0000   1.0000   1.0000   1.0000   1.0000
     1.0000   1.0000   1.0000   1.0000   1.0000   1.0000   1.0000   1.0000
     1.0000   1.0000   1.0000   1.0000   1.0000   1.0000   1.0000   1.0000
     1.0000   1.0000   1.0000   1.0000   1.0000   1.0000   1.0000   1.0000
     1.0000   1.0000   1.0000   1.0000   1.0000   1.0000   1.0000   1.0000
     1.0000   1.0000   1.0000   1.0000   1.0000   1.0000   1.0000   1.0000
     1.0000   1.0000   1.0000   1.0000   1.0000   1.0000   1.0000   1.0000
     1.0000   1.0000   1.0000   1.0000   0.0000   0.0000   0.0000   0.0000
     0.0000   0.0000   0.0000   0.0000   0.0000   0.0000   0.0000   0.0000
     0.0000   0.0000   0.0000   0.0000   0.0000   0.0000   0.0000   0.0000
     0.0000   0.0000   0.0000   0.0000   0.0000   0.0000   0.0000   0.0000
     0.0000   0.0000   0.0000   0.0000   0.0000   0.0000   0.0000   0.0000
     0.0000   0.0000   0.0000   0.0000   0.0000   0.0000   0.0000   0.0000
     0.0000   0.0000   0.0000   0.0000   0.0000   0.0000   0.0000   0.0000

          k = 0.1000 0.0577 0.0000 ( 59516 PWs)   bands (ev):

   -73.4619 -73.4615 -71.3728 -71.3723 -47.5889 -47.5852 -47.2965 -47.2954
   -46.9701 -46.9659 -45.3668 -45.3624 -45.0708 -45.0693 -44.8946 -44.8896
   -18.4596 -18.4356 -17.8856 -17.8699 -17.6105 -17.6043 -17.5342 -17.5180
   -17.4491 -17.4348 -17.3396 -17.3388 -11.5932 -11.5786 -11.2889 -11.2617
   -10.1894 -10.0310  -9.8692  -9.7272  -9.3028  -9.2394  -9.2239  -9.1996
    -9.0632  -8.8928  -8.7691  -8.7151  -8.4160  -8.3560  -8.1091  -8.0409
    -7.9263  -7.8098  -7.5516  -7.5221  -7.4649  -7.4248  -7.2524  -7.1459
    -6.8651  -6.7294  -6.6279  -6.3558  -6.2750  -6.2142  -6.1565  -6.1502
    -6.0854  -5.6289  -5.6044  -5.5614  -5.1542  -5.1193  -5.0819  -5.0539
    -5.0131  -4.8497  -4.0761  -4.0491  -3.9952  -3.9543  -3.8534  -3.8045
    -2.4591  -2.4040  -2.3545  -2.2688  -1.3313  -1.2665  -1.0851  -0.9341
    -0.2942  -0.1710   0.1152   0.1412   0.1521   0.2705   0.3065   0.4336
     0.4505   0.5466   0.5997   0.7302   0.7854   0.9664   1.0219   1.1133
     1.8643   2.0265   2.0639   2.1913   2.4372   2.4899   2.5186   2.5540
     2.5756   2.5970   2.6189   2.6523   2.6904   2.7212   2.7666   2.8128

     occupation numbers 
     1.0000   1.0000   1.0000   1.0000   1.0000   1.0000   1.0000   1.0000
     1.0000   1.0000   1.0000   1.0000   1.0000   1.0000   1.0000   1.0000
     1.0000   1.0000   1.0000   1.0000   1.0000   1.0000   1.0000   1.0000
     1.0000   1.0000   1.0000   1.0000   1.0000   1.0000   1.0000   1.0000
     1.0000   1.0000   1.0000   1.0000   1.0000   1.0000   1.0000   1.0000
     1.0000   1.0000   1.0000   1.0000   1.0000   1.0000   1.0000   1.0000
     1.0000   1.0000   1.0000   1.0000   1.0000   1.0000   1.0000   1.0000
     1.0000   1.0000   1.0000   1.0000   1.0000   1.0000   1.0000   1.0000
     1.0000   1.0000   1.0000   1.0000   0.0000   0.0000   0.0000   0.0000
     0.0000   0.0000   0.0000   0.0000   0.0000   0.0000   0.0000   0.0000
     0.0000   0.0000   0.0000   0.0000   0.0000   0.0000   0.0000   0.0000
     0.0000   0.0000   0.0000   0.0000   0.0000   0.0000   0.0000   0.0000
     0.0000   0.0000   0.0000   0.0000   0.0000   0.0000   0.0000   0.0000
     0.0000   0.0000   0.0000   0.0000   0.0000   0.0000   0.0000   0.0000
     0.0000   0.0000   0.0000   0.0000   0.0000   0.0000   0.0000   0.0000

          k = 0.1125 0.0650 0.0000 ( 59516 PWs)   bands (ev):

   -73.4619 -73.4615 -71.3728 -71.3723 -47.5889 -47.5852 -47.2965 -47.2954
   -46.9700 -46.9659 -45.3668 -45.3624 -45.0708 -45.0694 -44.8946 -44.8896
   -18.4539 -18.4299 -17.8837 -17.8657 -17.6129 -17.6053 -17.5399 -17.5193
   -17.4569 -17.4388 -17.3405 -17.3394 -11.5972 -11.5813 -11.2874 -11.2602
   -10.1902 -10.0345  -9.8667  -9.7258  -9.3016  -9.2520  -9.2258  -9.2093
    -9.0580  -8.8953  -8.7652  -8.7060  -8.3871  -8.3256  -8.0843  -8.0101
    -7.9129  -7.7975  -7.5661  -7.5310  -7.4654  -7.4241  -7.2398  -7.1446
    -6.8728  -6.7364  -6.6372  -6.3660  -6.2884  -6.2332  -6.1688  -6.1596
    -6.0943  -5.6555  -5.6072  -5.5675  -5.1503  -5.1175  -5.0841  -5.0565
    -5.0151  -4.8667  -4.0782  -4.0498  -3.9926  -3.9461  -3.8545  -3.8054
    -2.4662  -2.4093  -2.3496  -2.2708  -1.3279  -1.2402  -1.0579  -0.9304
    -0.2518  -0.1275   0.1207   0.1240   0.1524   0.2524   0.2879   0.4204
     0.4618   0.5332   0.6190   0.7090   0.8189   0.9945   1.0411   1.1341
     1.8734   2.0163   2.0440   2.1424   2.4446   2.4546   2.4949   2.5526
     2.5544   2.5684   2.5932   2.6159   2.6548   2.6863   2.7265   2.7805

     occupation numbers 
     1.0000   1.0000   1.0000   1.0000   1.0000   1.0000   1.0000   1.0000
     1.0000   1.0000   1.0000   1.0000   1.0000   1.0000   1.0000   1.0000
     1.0000   1.0000   1.0000   1.0000   1.0000   1.0000   1.0000   1.0000
     1.0000   1.0000   1.0000   1.0000   1.0000   1.0000   1.0000   1.0000
     1.0000   1.0000   1.0000   1.0000   1.0000   1.0000   1.0000   1.0000
     1.0000   1.0000   1.0000   1.0000   1.0000   1.0000   1.0000   1.0000
     1.0000   1.0000   1.0000   1.0000   1.0000   1.0000   1.0000   1.0000
     1.0000   1.0000   1.0000   1.0000   1.0000   1.0000   1.0000   1.0000
     1.0000   1.0000   1.0000   1.0000   0.0000   0.0000   0.0000   0.0000
     0.0000   0.0000   0.0000   0.0000   0.0000   0.0000   0.0000   0.0000
     0.0000   0.0000   0.0000   0.0000   0.0000   0.0000   0.0000   0.0000
     0.0000   0.0000   0.0000   0.0000   0.0000   0.0000   0.0000   0.0000
     0.0000   0.0000   0.0000   0.0000   0.0000   0.0000   0.0000   0.0000
     0.0000   0.0000   0.0000   0.0000   0.0000   0.0000   0.0000   0.0000
     0.0000   0.0000   0.0000   0.0000   0.0000   0.0000   0.0000   0.0000

          k = 0.1250 0.0722 0.0000 ( 59514 PWs)   bands (ev):

   -73.4619 -73.4615 -71.3728 -71.3723 -47.5889 -47.5852 -47.2965 -47.2954
   -46.9700 -46.9659 -45.3667 -45.3624 -45.0708 -45.0694 -44.8945 -44.8896
   -18.4476 -18.4236 -17.8815 -17.8610 -17.6155 -17.6065 -17.5462 -17.5207
   -17.4656 -17.4431 -17.3417 -17.3401 -11.6016 -11.5841 -11.2860 -11.2588
   -10.1910 -10.0381  -9.8639  -9.7241  -9.3018  -9.2655  -9.2293  -9.2154
    -9.0528  -8.8978  -8.7587  -8.6950  -8.3567  -8.2932  -8.0588  -7.9777
    -7.8985  -7.7846  -7.5815  -7.5394  -7.4661  -7.4232  -7.2271  -7.1439
    -6.8809  -6.7431  -6.6473  -6.3819  -6.3032  -6.2564  -6.1808  -6.1679
    -6.1001  -5.6832  -5.6138  -5.5710  -5.1463  -5.1192  -5.0840  -5.0598
    -5.0162  -4.8840  -4.0810  -4.0501  -3.9897  -3.9378  -3.8556  -3.8064
    -2.4731  -2.4151  -2.3448  -2.2724  -1.3246  -1.2118  -1.0284  -0.9267
    -0.2065  -0.0813   0.1007   0.1275   0.1594   0.2337   0.2688   0.4002
     0.4812   0.5190   0.6404   0.6867   0.8531   1.0231   1.0614   1.1565
     1.8792   1.9661   2.0570   2.0901   2.3939   2.4060   2.4683   2.5122
     2.5227   2.5592   2.5725   2.6116   2.6521   2.6619   2.6937   2.7532

     occupation numbers 
     1.0000   1.0000   1.0000   1.0000   1.0000   1.0000   1.0000   1.0000
     1.0000   1.0000   1.0000   1.0000   1.0000   1.0000   1.0000   1.0000
     1.0000   1.0000   1.0000   1.0000   1.0000   1.0000   1.0000   1.0000
     1.0000   1.0000   1.0000   1.0000   1.0000   1.0000   1.0000   1.0000
     1.0000   1.0000   1.0000   1.0000   1.0000   1.0000   1.0000   1.0000
     1.0000   1.0000   1.0000   1.0000   1.0000   1.0000   1.0000   1.0000
     1.0000   1.0000   1.0000   1.0000   1.0000   1.0000   1.0000   1.0000
     1.0000   1.0000   1.0000   1.0000   1.0000   1.0000   1.0000   1.0000
     1.0000   1.0000   1.0000   1.0000   0.0000   0.0000   0.0000   0.0000
     0.0000   0.0000   0.0000   0.0000   0.0000   0.0000   0.0000   0.0000
     0.0000   0.0000   0.0000   0.0000   0.0000   0.0000   0.0000   0.0000
     0.0000   0.0000   0.0000   0.0000   0.0000   0.0000   0.0000   0.0000
     0.0000   0.0000   0.0000   0.0000   0.0000   0.0000   0.0000   0.0000
     0.0000   0.0000   0.0000   0.0000   0.0000   0.0000   0.0000   0.0000
     0.0000   0.0000   0.0000   0.0000   0.0000   0.0000   0.0000   0.0000

          k = 0.1375 0.0794 0.0000 ( 59488 PWs)   bands (ev):

   -73.4619 -73.4615 -71.3728 -71.3723 -47.5888 -47.5853 -47.2965 -47.2954
   -46.9700 -46.9659 -45.3667 -45.3624 -45.0708 -45.0694 -44.8945 -44.8897
   -18.4407 -18.4166 -17.8792 -17.8559 -17.6184 -17.6077 -17.5531 -17.5222
   -17.4750 -17.4475 -17.3431 -17.3410 -11.6062 -11.5868 -11.2848 -11.2574
   -10.1918 -10.0416  -9.8608  -9.7222  -9.3044  -9.2779  -9.2358  -9.2170
    -9.0475  -8.9000  -8.7495  -8.6818  -8.3250  -8.2595  -8.0329  -7.9443
    -7.8830  -7.7715  -7.5974  -7.5472  -7.4670  -7.4221  -7.2145  -7.1438
    -6.8894  -6.7496  -6.6581  -6.4039  -6.3185  -6.2832  -6.1934  -6.1747
    -6.1023  -5.7116  -5.6233  -5.5729  -5.1423  -5.1238  -5.0829  -5.0631
    -5.0163  -4.9011  -4.0845  -4.0502  -3.9867  -3.9295  -3.8567  -3.8073
    -2.4797  -2.4212  -2.3402  -2.2738  -1.3215  -1.1815  -0.9970  -0.9231
    -0.1590  -0.0336   0.0788   0.1345   0.1674   0.2149   0.2498   0.3790
     0.5005   0.5062   0.6627   0.6648   0.8877   1.0517   1.0827   1.1802
     1.8787   1.9136   2.0338   2.0629   2.3313   2.3501   2.4152   2.4600
     2.4837   2.5309   2.5732   2.6039   2.6409   2.6644   2.6878   2.7330

     occupation numbers 
     1.0000   1.0000   1.0000   1.0000   1.0000   1.0000   1.0000   1.0000
     1.0000   1.0000   1.0000   1.0000   1.0000   1.0000   1.0000   1.0000
     1.0000   1.0000   1.0000   1.0000   1.0000   1.0000   1.0000   1.0000
     1.0000   1.0000   1.0000   1.0000   1.0000   1.0000   1.0000   1.0000
     1.0000   1.0000   1.0000   1.0000   1.0000   1.0000   1.0000   1.0000
     1.0000   1.0000   1.0000   1.0000   1.0000   1.0000   1.0000   1.0000
     1.0000   1.0000   1.0000   1.0000   1.0000   1.0000   1.0000   1.0000
     1.0000   1.0000   1.0000   1.0000   1.0000   1.0000   1.0000   1.0000
     1.0000   1.0000   1.0000   1.0000   0.0000   0.0000   0.0000   0.0000
     0.0000   0.0000   0.0000   0.0000   0.0000   0.0000   0.0000   0.0000
     0.0000   0.0000   0.0000   0.0000   0.0000   0.0000   0.0000   0.0000
     0.0000   0.0000   0.0000   0.0000   0.0000   0.0000   0.0000   0.0000
     0.0000   0.0000   0.0000   0.0000   0.0000   0.0000   0.0000   0.0000
     0.0000   0.0000   0.0000   0.0000   0.0000   0.0000   0.0000   0.0000
     0.0000   0.0000   0.0000   0.0000   0.0000   0.0000   0.0000   0.0000

          k = 0.1500 0.0866 0.0000 ( 59472 PWs)   bands (ev):

   -73.4619 -73.4615 -71.3728 -71.3723 -47.5888 -47.5853 -47.2965 -47.2954
   -46.9699 -46.9660 -45.3667 -45.3625 -45.0707 -45.0694 -44.8945 -44.8897
   -18.4331 -18.4091 -17.8766 -17.8503 -17.6214 -17.6092 -17.5607 -17.5238
   -17.4851 -17.4522 -17.3450 -17.3419 -11.6109 -11.5894 -11.2839 -11.2559
   -10.1925 -10.0449  -9.8574  -9.7199  -9.3109  -9.2881  -9.2422  -9.2166
    -9.0419  -8.9021  -8.7376  -8.6664  -8.2922  -8.2249  -8.0075  -7.9113
    -7.8657  -7.7586  -7.6132  -7.5543  -7.4682  -7.4204  -7.2023  -7.1445
    -6.8981  -6.7560  -6.6696  -6.4315  -6.3341  -6.3128  -6.2074  -6.1797
    -6.1013  -5.7402  -5.6344  -5.5747  -5.1397  -5.1289  -5.0834  -5.0650
    -5.0153  -4.9177  -4.0883  -4.0504  -3.9835  -3.9214  -3.8576  -3.8082
    -2.4858  -2.4277  -2.3358  -2.2748  -1.3187  -1.1498  -0.9645  -0.9192
    -0.1102   0.0121   0.0607   0.1421   0.1757   0.1970   0.2313   0.3580
     0.4879   0.5264   0.6408   0.6881   0.9222   1.0793   1.1050   1.2047
     1.8550   1.8718   1.9749   2.0550   2.2705   2.2965   2.3574   2.4069
     2.4432   2.4861   2.5445   2.6008   2.6354   2.6570   2.6833   2.7434

     occupation numbers 
     1.0000   1.0000   1.0000   1.0000   1.0000   1.0000   1.0000   1.0000
     1.0000   1.0000   1.0000   1.0000   1.0000   1.0000   1.0000   1.0000
     1.0000   1.0000   1.0000   1.0000   1.0000   1.0000   1.0000   1.0000
     1.0000   1.0000   1.0000   1.0000   1.0000   1.0000   1.0000   1.0000
     1.0000   1.0000   1.0000   1.0000   1.0000   1.0000   1.0000   1.0000
     1.0000   1.0000   1.0000   1.0000   1.0000   1.0000   1.0000   1.0000
     1.0000   1.0000   1.0000   1.0000   1.0000   1.0000   1.0000   1.0000
     1.0000   1.0000   1.0000   1.0000   1.0000   1.0000   1.0000   1.0000
     1.0000   1.0000   1.0000   1.0000   0.0000   0.0000   0.0000   0.0000
     0.0000   0.0000   0.0000   0.0000   0.0000   0.0000   0.0000   0.0000
     0.0000   0.0000   0.0000   0.0000   0.0000   0.0000   0.0000   0.0000
     0.0000   0.0000   0.0000   0.0000   0.0000   0.0000   0.0000   0.0000
     0.0000   0.0000   0.0000   0.0000   0.0000   0.0000   0.0000   0.0000
     0.0000   0.0000   0.0000   0.0000   0.0000   0.0000   0.0000   0.0000
     0.0000   0.0000   0.0000   0.0000   0.0000   0.0000   0.0000   0.0000

          k = 0.1625 0.0938 0.0000 ( 59484 PWs)   bands (ev):

   -73.4619 -73.4615 -71.3728 -71.3723 -47.5888 -47.5853 -47.2965 -47.2955
   -46.9699 -46.9660 -45.3666 -45.3625 -45.0707 -45.0694 -44.8944 -44.8897
   -18.4250 -18.4008 -17.8739 -17.8443 -17.6246 -17.6107 -17.5689 -17.5255
   -17.4959 -17.4570 -17.3472 -17.3431 -11.6158 -11.5919 -11.2835 -11.2545
   -10.1931 -10.0482  -9.8536  -9.7174  -9.3211  -9.2963  -9.2465  -9.2156
    -9.0361  -8.9038  -8.7233  -8.6489  -8.2585  -8.1896  -7.9831  -7.8813
    -7.8447  -7.7464  -7.6281  -7.5603  -7.4699  -7.4182  -7.1910  -7.1460
    -6.9067  -6.7626  -6.6815  -6.4632  -6.3522  -6.3417  -6.2228  -6.1829
    -6.0979  -5.7688  -5.6465  -5.5774  -5.1429  -5.1292  -5.0869  -5.0644
    -5.0134  -4.9335  -4.0923  -4.0510  -3.9803  -3.9136  -3.8582  -3.8091
    -2.4915  -2.4342  -2.3316  -2.2757  -1.3165  -1.1168  -0.9342  -0.9122
    -0.0616   0.0273   0.0740   0.1501   0.1753   0.1900   0.2137   0.3381
     0.4725   0.5499   0.6183   0.7134   0.9564   1.1047   1.1285   1.2298
     1.7979   1.8470   1.9128   2.0298   2.2148   2.2521   2.3023   2.3552
     2.4101   2.4363   2.5020   2.5785   2.6030   2.6595   2.6853   2.7638

     occupation numbers 
     1.0000   1.0000   1.0000   1.0000   1.0000   1.0000   1.0000   1.0000
     1.0000   1.0000   1.0000   1.0000   1.0000   1.0000   1.0000   1.0000
     1.0000   1.0000   1.0000   1.0000   1.0000   1.0000   1.0000   1.0000
     1.0000   1.0000   1.0000   1.0000   1.0000   1.0000   1.0000   1.0000
     1.0000   1.0000   1.0000   1.0000   1.0000   1.0000   1.0000   1.0000
     1.0000   1.0000   1.0000   1.0000   1.0000   1.0000   1.0000   1.0000
     1.0000   1.0000   1.0000   1.0000   1.0000   1.0000   1.0000   1.0000
     1.0000   1.0000   1.0000   1.0000   1.0000   1.0000   1.0000   1.0000
     1.0000   1.0000   1.0000   1.0000   0.0000   0.0000   0.0000   0.0000
     0.0000   0.0000   0.0000   0.0000   0.0000   0.0000   0.0000   0.0000
     0.0000   0.0000   0.0000   0.0000   0.0000   0.0000   0.0000   0.0000
     0.0000   0.0000   0.0000   0.0000   0.0000   0.0000   0.0000   0.0000
     0.0000   0.0000   0.0000   0.0000   0.0000   0.0000   0.0000   0.0000
     0.0000   0.0000   0.0000   0.0000   0.0000   0.0000   0.0000   0.0000
     0.0000   0.0000   0.0000   0.0000   0.0000   0.0000   0.0000   0.0000

          k = 0.1750 0.1010 0.0000 ( 59512 PWs)   bands (ev):

   -73.4619 -73.4615 -71.3728 -71.3723 -47.5887 -47.5854 -47.2965 -47.2955
   -46.9699 -46.9660 -45.3666 -45.3626 -45.0707 -45.0694 -44.8944 -44.8898
   -18.4162 -18.3920 -17.8709 -17.8379 -17.6280 -17.6125 -17.5776 -17.5272
   -17.5074 -17.4619 -17.3498 -17.3443 -11.6207 -11.5943 -11.2837 -11.2530
   -10.1937 -10.0513  -9.8494  -9.7144  -9.3331  -9.3045  -9.2482  -9.2141
    -9.0299  -8.9049  -8.7067  -8.6295  -8.2243  -8.1541  -7.9607  -7.8577
    -7.8176  -7.7361  -7.6409  -7.5643  -7.4722  -7.4152  -7.1813  -7.1478
    -6.9149  -6.7700  -6.6938  -6.4976  -6.3821  -6.3596  -6.2393  -6.1847
    -6.0928  -5.7971  -5.6593  -5.5815  -5.1507  -5.1258  -5.0925  -5.0623
    -5.0108  -4.9479  -4.0965  -4.0521  -3.9771  -3.9061  -3.8586  -3.8100
    -2.4966  -2.4407  -2.3276  -2.2764  -1.3150  -1.0829  -0.9216  -0.8869
    -0.0155   0.0125   0.1155   0.1534   0.1667   0.1967   0.2009   0.3209
     0.4575   0.5721   0.5981   0.7391   0.9899   1.1265   1.1534   1.2549
     1.7375   1.8070   1.8482   1.9858   2.1661   2.2189   2.2537   2.3037
     2.3777   2.3966   2.4533   2.5525   2.5612   2.6367   2.7067   2.7742

     occupation numbers 
     1.0000   1.0000   1.0000   1.0000   1.0000   1.0000   1.0000   1.0000
     1.0000   1.0000   1.0000   1.0000   1.0000   1.0000   1.0000   1.0000
     1.0000   1.0000   1.0000   1.0000   1.0000   1.0000   1.0000   1.0000
     1.0000   1.0000   1.0000   1.0000   1.0000   1.0000   1.0000   1.0000
     1.0000   1.0000   1.0000   1.0000   1.0000   1.0000   1.0000   1.0000
     1.0000   1.0000   1.0000   1.0000   1.0000   1.0000   1.0000   1.0000
     1.0000   1.0000   1.0000   1.0000   1.0000   1.0000   1.0000   1.0000
     1.0000   1.0000   1.0000   1.0000   1.0000   1.0000   1.0000   1.0000
     1.0000   1.0000   1.0000   1.0000   0.0000   0.0000   0.0000   0.0000
     0.0000   0.0000   0.0000   0.0000   0.0000   0.0000   0.0000   0.0000
     0.0000   0.0000   0.0000   0.0000   0.0000   0.0000   0.0000   0.0000
     0.0000   0.0000   0.0000   0.0000   0.0000   0.0000   0.0000   0.0000
     0.0000   0.0000   0.0000   0.0000   0.0000   0.0000   0.0000   0.0000
     0.0000   0.0000   0.0000   0.0000   0.0000   0.0000   0.0000   0.0000
     0.0000   0.0000   0.0000   0.0000   0.0000   0.0000   0.0000   0.0000

          k = 0.1875 0.1083 0.0000 ( 59504 PWs)   bands (ev):

   -73.4619 -73.4615 -71.3728 -71.3723 -47.5887 -47.5854 -47.2965 -47.2955
   -46.9698 -46.9661 -45.3665 -45.3626 -45.0707 -45.0694 -44.8943 -44.8898
   -18.4068 -18.3826 -17.8678 -17.8311 -17.6316 -17.6144 -17.5870 -17.5290
   -17.5195 -17.4668 -17.3528 -17.3457 -11.6256 -11.5964 -11.2844 -11.2515
   -10.1942 -10.0542  -9.8449  -9.7110  -9.3458  -9.3135  -9.2471  -9.2120
    -9.0233  -8.9053  -8.6883  -8.6085  -8.1898  -8.1187  -7.9413  -7.8394
    -7.7864  -7.7294  -7.6491  -7.5656  -7.4750  -7.4113  -7.1751  -7.1487
    -6.9226  -6.7792  -6.7065  -6.5332  -6.4167  -6.3723  -6.2565  -6.1855
    -6.0866  -5.8249  -5.6727  -5.5871  -5.1598  -5.1219  -5.0987  -5.0599
    -5.0079  -4.9607  -4.1008  -4.0538  -3.9738  -3.8992  -3.8585  -3.8107
    -2.5010  -2.4471  -2.3238  -2.2771  -1.3145  -1.0482  -0.9195  -0.8512
    -0.0054   0.0264   0.1420   0.1519   0.1754   0.1837   0.2132   0.3107
     0.4437   0.5716   0.6019   0.7644   1.0223   1.1445   1.1789   1.2796
     1.6758   1.7519   1.7822   1.9267   2.1252   2.1916   2.2164   2.2527
     2.3277   2.3832   2.4025   2.5122   2.5325   2.6158   2.7153   2.7774

     occupation numbers 
     1.0000   1.0000   1.0000   1.0000   1.0000   1.0000   1.0000   1.0000
     1.0000   1.0000   1.0000   1.0000   1.0000   1.0000   1.0000   1.0000
     1.0000   1.0000   1.0000   1.0000   1.0000   1.0000   1.0000   1.0000
     1.0000   1.0000   1.0000   1.0000   1.0000   1.0000   1.0000   1.0000
     1.0000   1.0000   1.0000   1.0000   1.0000   1.0000   1.0000   1.0000
     1.0000   1.0000   1.0000   1.0000   1.0000   1.0000   1.0000   1.0000
     1.0000   1.0000   1.0000   1.0000   1.0000   1.0000   1.0000   1.0000
     1.0000   1.0000   1.0000   1.0000   1.0000   1.0000   1.0000   1.0000
     1.0000   1.0000   1.0000   1.0000   0.0000   0.0000   0.0000   0.0000
     0.0000   0.0000   0.0000   0.0000   0.0000   0.0000   0.0000   0.0000
     0.0000   0.0000   0.0000   0.0000   0.0000   0.0000   0.0000   0.0000
     0.0000   0.0000   0.0000   0.0000   0.0000   0.0000   0.0000   0.0000
     0.0000   0.0000   0.0000   0.0000   0.0000   0.0000   0.0000   0.0000
     0.0000   0.0000   0.0000   0.0000   0.0000   0.0000   0.0000   0.0000
     0.0000   0.0000   0.0000   0.0000   0.0000   0.0000   0.0000   0.0000

          k = 0.2000 0.1155 0.0000 ( 59532 PWs)   bands (ev):

   -73.4619 -73.4615 -71.3728 -71.3723 -47.5887 -47.5854 -47.2965 -47.2955
   -46.9698 -46.9661 -45.3665 -45.3626 -45.0707 -45.0694 -44.8943 -44.8899
   -18.3969 -18.3726 -17.8644 -17.8239 -17.6353 -17.6165 -17.5968 -17.5324
   -17.5306 -17.4718 -17.3561 -17.3471 -11.6305 -11.5984 -11.2858 -11.2499
   -10.1947 -10.0569  -9.8399  -9.7071  -9.3586  -9.3232  -9.2436  -9.2092
    -9.0161  -8.9049  -8.6684  -8.5862  -8.1551  -8.0838  -7.9260  -7.8237
    -7.7562  -7.7276  -7.6501  -7.5628  -7.4786  -7.4063  -7.1747  -7.1467
    -6.9294  -6.7912  -6.7192  -6.5687  -6.4522  -6.3821  -6.2742  -6.1857
    -6.0796  -5.8520  -5.6867  -5.5945  -5.1698  -5.1186  -5.1041  -5.0577
    -5.0053  -4.9711  -4.1053  -4.0562  -3.9704  -3.8931  -3.8578  -3.8113
    -2.5047  -2.4532  -2.3203  -2.2776  -1.3152  -1.0129  -0.9199  -0.8133
    -0.0202   0.0530   0.1346   0.1664   0.1777   0.1947   0.2224   0.3166
     0.4322   0.5551   0.6235   0.7888   1.0529   1.1585   1.2037   1.3028
     1.6146   1.6856   1.7165   1.8576   2.0921   2.1617   2.1897   2.2076
     2.2771   2.3525   2.3713   2.4720   2.5115   2.5971   2.7133   2.7742

     occupation numbers 
     1.0000   1.0000   1.0000   1.0000   1.0000   1.0000   1.0000   1.0000
     1.0000   1.0000   1.0000   1.0000   1.0000   1.0000   1.0000   1.0000
     1.0000   1.0000   1.0000   1.0000   1.0000   1.0000   1.0000   1.0000
     1.0000   1.0000   1.0000   1.0000   1.0000   1.0000   1.0000   1.0000
     1.0000   1.0000   1.0000   1.0000   1.0000   1.0000   1.0000   1.0000
     1.0000   1.0000   1.0000   1.0000   1.0000   1.0000   1.0000   1.0000
     1.0000   1.0000   1.0000   1.0000   1.0000   1.0000   1.0000   1.0000
     1.0000   1.0000   1.0000   1.0000   1.0000   1.0000   1.0000   1.0000
     1.0000   1.0000   1.0000   1.0000   0.0000   0.0000   0.0000   0.0000
     0.0000   0.0000   0.0000   0.0000   0.0000   0.0000   0.0000   0.0000
     0.0000   0.0000   0.0000   0.0000   0.0000   0.0000   0.0000   0.0000
     0.0000   0.0000   0.0000   0.0000   0.0000   0.0000   0.0000   0.0000
     0.0000   0.0000   0.0000   0.0000   0.0000   0.0000   0.0000   0.0000
     0.0000   0.0000   0.0000   0.0000   0.0000   0.0000   0.0000   0.0000
     0.0000   0.0000   0.0000   0.0000   0.0000   0.0000   0.0000   0.0000

          k = 0.2125 0.1227 0.0000 ( 59522 PWs)   bands (ev):

   -73.4619 -73.4615 -71.3728 -71.3723 -47.5886 -47.5855 -47.2964 -47.2955
   -46.9697 -46.9662 -45.3665 -45.3627 -45.0707 -45.0694 -44.8942 -44.8899
   -18.3865 -18.3620 -17.8608 -17.8163 -17.6392 -17.6188 -17.6071 -17.5455
   -17.5326 -17.4768 -17.3599 -17.3487 -11.6352 -11.6002 -11.2879 -11.2483
   -10.1952 -10.0595  -9.8344  -9.7026  -9.3711  -9.3333  -9.2379  -9.2057
    -9.0083  -8.9035  -8.6474  -8.5630  -8.1206  -8.0497  -7.9162  -7.8095
    -7.7386  -7.7221  -7.6425  -7.5551  -7.4826  -7.4003  -7.1797  -7.1428
    -6.9351  -6.8070  -6.7321  -6.6023  -6.4875  -6.3885  -6.2921  -6.1857
    -6.0722  -5.8784  -5.7013  -5.6036  -5.1805  -5.1172  -5.1071  -5.0559
    -5.0041  -4.9781  -4.1098  -4.0593  -3.9671  -3.8878  -3.8565  -3.8117
    -2.5078  -2.4588  -2.3170  -2.2781  -1.3173  -0.9774  -0.9222  -0.7745
    -0.0334   0.0593   0.1355   0.1573   0.1867   0.2138   0.2279   0.3409
     0.4248   0.5426   0.6446   0.8113   1.0812   1.1678   1.2267   1.3230
     1.5570   1.6129   1.6535   1.7828   2.0656   2.1313   2.1507   2.1826
     2.2302   2.3073   2.3461   2.4465   2.4938   2.5808   2.7044   2.7656

     occupation numbers 
     1.0000   1.0000   1.0000   1.0000   1.0000   1.0000   1.0000   1.0000
     1.0000   1.0000   1.0000   1.0000   1.0000   1.0000   1.0000   1.0000
     1.0000   1.0000   1.0000   1.0000   1.0000   1.0000   1.0000   1.0000
     1.0000   1.0000   1.0000   1.0000   1.0000   1.0000   1.0000   1.0000
     1.0000   1.0000   1.0000   1.0000   1.0000   1.0000   1.0000   1.0000
     1.0000   1.0000   1.0000   1.0000   1.0000   1.0000   1.0000   1.0000
     1.0000   1.0000   1.0000   1.0000   1.0000   1.0000   1.0000   1.0000
     1.0000   1.0000   1.0000   1.0000   1.0000   1.0000   1.0000   1.0000
     1.0000   1.0000   1.0000   1.0000   0.0000   0.0000   0.0000   0.0000
     0.0000   0.0000   0.0000   0.0000   0.0000   0.0000   0.0000   0.0000
     0.0000   0.0000   0.0000   0.0000   0.0000   0.0000   0.0000   0.0000
     0.0000   0.0000   0.0000   0.0000   0.0000   0.0000   0.0000   0.0000
     0.0000   0.0000   0.0000   0.0000   0.0000   0.0000   0.0000   0.0000
     0.0000   0.0000   0.0000   0.0000   0.0000   0.0000   0.0000   0.0000
     0.0000   0.0000   0.0000   0.0000   0.0000   0.0000   0.0000   0.0000

          k = 0.2250 0.1299 0.0000 ( 59534 PWs)   bands (ev):

   -73.4619 -73.4615 -71.3728 -71.3723 -47.5886 -47.5855 -47.2964 -47.2955
   -46.9697 -46.9662 -45.3664 -45.3627 -45.0707 -45.0695 -44.8942 -44.8900
   -18.3755 -18.3509 -17.8571 -17.8083 -17.6435 -17.6215 -17.6175 -17.5594
   -17.5344 -17.4817 -17.3642 -17.3503 -11.6398 -11.6017 -11.2907 -11.2467
   -10.1958 -10.0619  -9.8285  -9.6976  -9.3834  -9.3438  -9.2301  -9.2013
    -8.9997  -8.9009  -8.6256  -8.5393  -8.0866  -8.0171  -7.9130  -7.7960
    -7.7410  -7.7057  -7.6265  -7.5426  -7.4864  -7.3929  -7.1878  -7.1398
    -6.9393  -6.8277  -6.7448  -6.6328  -6.5216  -6.3912  -6.3100  -6.1857
    -6.0648  -5.9039  -5.7166  -5.6143  -5.1921  -5.1187  -5.1067  -5.0543
    -5.0056  -4.9803  -4.1143  -4.0631  -3.9639  -3.8836  -3.8544  -3.8119
    -2.5104  -2.4637  -2.3141  -2.2786  -1.3209  -0.9419  -0.9262  -0.7349
    -0.0445   0.0505   0.1377   0.1514   0.1820   0.2193   0.2520   0.3706
     0.4242   0.5391   0.6634   0.8311   1.1054   1.1715   1.2465   1.3374
     1.5067   1.5373   1.5979   1.7055   2.0416   2.0971   2.1177   2.1564
     2.1903   2.2717   2.3063   2.4348   2.4797   2.5674   2.6914   2.7534

     occupation numbers 
     1.0000   1.0000   1.0000   1.0000   1.0000   1.0000   1.0000   1.0000
     1.0000   1.0000   1.0000   1.0000   1.0000   1.0000   1.0000   1.0000
     1.0000   1.0000   1.0000   1.0000   1.0000   1.0000   1.0000   1.0000
     1.0000   1.0000   1.0000   1.0000   1.0000   1.0000   1.0000   1.0000
     1.0000   1.0000   1.0000   1.0000   1.0000   1.0000   1.0000   1.0000
     1.0000   1.0000   1.0000   1.0000   1.0000   1.0000   1.0000   1.0000
     1.0000   1.0000   1.0000   1.0000   1.0000   1.0000   1.0000   1.0000
     1.0000   1.0000   1.0000   1.0000   1.0000   1.0000   1.0000   1.0000
     1.0000   1.0000   1.0000   1.0000   0.0000   0.0000   0.0000   0.0000
     0.0000   0.0000   0.0000   0.0000   0.0000   0.0000   0.0000   0.0000
     0.0000   0.0000   0.0000   0.0000   0.0000   0.0000   0.0000   0.0000
     0.0000   0.0000   0.0000   0.0000   0.0000   0.0000   0.0000   0.0000
     0.0000   0.0000   0.0000   0.0000   0.0000   0.0000   0.0000   0.0000
     0.0000   0.0000   0.0000   0.0000   0.0000   0.0000   0.0000   0.0000
     0.0000   0.0000   0.0000   0.0000   0.0000   0.0000   0.0000   0.0000

          k = 0.2375 0.1371 0.0000 ( 59516 PWs)   bands (ev):

   -73.4619 -73.4615 -71.3728 -71.3723 -47.5886 -47.5856 -47.2964 -47.2955
   -46.9696 -46.9663 -45.3664 -45.3628 -45.0706 -45.0695 -44.8941 -44.8901
   -18.3640 -18.3393 -17.8532 -17.8000 -17.6484 -17.6285 -17.6236 -17.5738
   -17.5362 -17.4867 -17.3688 -17.3520 -11.6443 -11.6030 -11.2942 -11.2450
   -10.1963 -10.0642  -9.8221  -9.6919  -9.3954  -9.3543  -9.2203  -9.1958
    -8.9903  -8.8972  -8.6034  -8.5154  -8.0536  -7.9867  -7.9167  -7.7834
    -7.7445  -7.6951  -7.6038  -7.5288  -7.4874  -7.3837  -7.1978  -7.1394
    -6.9418  -6.8535  -6.7574  -6.6591  -6.5537  -6.3902  -6.3277  -6.1859
    -6.0573  -5.9285  -5.7326  -5.6265  -5.2043  -5.1209  -5.1050  -5.0528
    -5.0090  -4.9787  -4.1189  -4.0676  -3.9607  -3.8804  -3.8517  -3.8117
    -2.5125  -2.4678  -2.3114  -2.2791  -1.3263  -0.9326  -0.9060  -0.6950
    -0.0531   0.0355   0.1348   0.1505   0.1670   0.2237   0.2776   0.3928
     0.4341   0.5504   0.6790   0.8472   1.1202   1.1712   1.2603   1.3419
     1.4578   1.4726   1.5571   1.6281   2.0104   2.0685   2.0867   2.1316
     2.1539   2.2472   2.2612   2.4273   2.4695   2.5571   2.6764   2.7391

     occupation numbers 
     1.0000   1.0000   1.0000   1.0000   1.0000   1.0000   1.0000   1.0000
     1.0000   1.0000   1.0000   1.0000   1.0000   1.0000   1.0000   1.0000
     1.0000   1.0000   1.0000   1.0000   1.0000   1.0000   1.0000   1.0000
     1.0000   1.0000   1.0000   1.0000   1.0000   1.0000   1.0000   1.0000
     1.0000   1.0000   1.0000   1.0000   1.0000   1.0000   1.0000   1.0000
     1.0000   1.0000   1.0000   1.0000   1.0000   1.0000   1.0000   1.0000
     1.0000   1.0000   1.0000   1.0000   1.0000   1.0000   1.0000   1.0000
     1.0000   1.0000   1.0000   1.0000   1.0000   1.0000   1.0000   1.0000
     1.0000   1.0000   1.0000   1.0000   0.0000   0.0000   0.0000   0.0000
     0.0000   0.0000   0.0000   0.0000   0.0000   0.0000   0.0000   0.0000
     0.0000   0.0000   0.0000   0.0000   0.0000   0.0000   0.0000   0.0000
     0.0000   0.0000   0.0000   0.0000   0.0000   0.0000   0.0000   0.0000
     0.0000   0.0000   0.0000   0.0000   0.0000   0.0000   0.0000   0.0000
     0.0000   0.0000   0.0000   0.0000   0.0000   0.0000   0.0000   0.0000
     0.0000   0.0000   0.0000   0.0000   0.0000   0.0000   0.0000   0.0000

          k = 0.2500 0.1443 0.0000 ( 59512 PWs)   bands (ev):

   -73.4619 -73.4615 -71.3727 -71.3723 -47.5885 -47.5856 -47.2964 -47.2955
   -46.9696 -46.9663 -45.3663 -45.3629 -45.0706 -45.0695 -44.8940 -44.8901
   -18.3520 -18.3271 -17.8491 -17.7913 -17.6548 -17.6380 -17.6266 -17.5887
   -17.5380 -17.4915 -17.3738 -17.3538 -11.6486 -11.6040 -11.2983 -11.2433
   -10.1969 -10.0664  -9.8151  -9.6857  -9.4071  -9.3648  -9.2085  -9.1892
    -8.9801  -8.8923  -8.5811  -8.4917  -8.0220  -7.9605  -7.9257  -7.7722
    -7.7447  -7.6896  -7.5786  -7.5220  -7.4793  -7.3718  -7.2088  -7.1423
    -6.9429  -6.8833  -6.7701  -6.6806  -6.5828  -6.3860  -6.3445  -6.1866
    -6.0500  -5.9519  -5.7491  -5.6401  -5.2171  -5.1228  -5.1034  -5.0512
    -5.0124  -4.9753  -4.1235  -4.0728  -3.9575  -3.8780  -3.8488  -3.8110
    -2.5145  -2.4707  -2.3092  -2.2796  -1.3335  -0.9408  -0.8706  -0.6547
    -0.0592   0.0178   0.1307   0.1462   0.1506   0.2272   0.2959   0.4031
     0.4562   0.5780   0.6906   0.8588   1.1120   1.1780   1.2606   1.3372
     1.3850   1.4504   1.5358   1.5552   1.9692   2.0418   2.0556   2.1146
     2.1253   2.2122   2.2334   2.4188   2.4630   2.5504   2.6604   2.7236

     occupation numbers 
     1.0000   1.0000   1.0000   1.0000   1.0000   1.0000   1.0000   1.0000
     1.0000   1.0000   1.0000   1.0000   1.0000   1.0000   1.0000   1.0000
     1.0000   1.0000   1.0000   1.0000   1.0000   1.0000   1.0000   1.0000
     1.0000   1.0000   1.0000   1.0000   1.0000   1.0000   1.0000   1.0000
     1.0000   1.0000   1.0000   1.0000   1.0000   1.0000   1.0000   1.0000
     1.0000   1.0000   1.0000   1.0000   1.0000   1.0000   1.0000   1.0000
     1.0000   1.0000   1.0000   1.0000   1.0000   1.0000   1.0000   1.0000
     1.0000   1.0000   1.0000   1.0000   1.0000   1.0000   1.0000   1.0000
     1.0000   1.0000   1.0000   1.0000   0.0000   0.0000   0.0000   0.0000
     0.0000   0.0000   0.0000   0.0000   0.0000   0.0000   0.0000   0.0000
     0.0000   0.0000   0.0000   0.0000   0.0000   0.0000   0.0000   0.0000
     0.0000   0.0000   0.0000   0.0000   0.0000   0.0000   0.0000   0.0000
     0.0000   0.0000   0.0000   0.0000   0.0000   0.0000   0.0000   0.0000
     0.0000   0.0000   0.0000   0.0000   0.0000   0.0000   0.0000   0.0000
     0.0000   0.0000   0.0000   0.0000   0.0000   0.0000   0.0000   0.0000

          k = 0.2625 0.1516 0.0000 ( 59526 PWs)   bands (ev):

   -73.4619 -73.4615 -71.3727 -71.3723 -47.5885 -47.5857 -47.2964 -47.2955
   -46.9695 -46.9664 -45.3663 -45.3629 -45.0706 -45.0695 -44.8940 -44.8902
   -18.3395 -18.3144 -17.8448 -17.7824 -17.6636 -17.6456 -17.6297 -17.6040
   -17.5398 -17.4963 -17.3793 -17.3556 -11.6526 -11.6047 -11.3030 -11.2417
   -10.1976 -10.0685  -9.8077  -9.6788  -9.4183  -9.3751  -9.1949  -9.1812
    -8.9690  -8.8861  -8.5590  -8.4685  -7.9926  -7.9530  -7.9251  -7.7639
    -7.7395  -7.6859  -7.5569  -7.5215  -7.4629  -7.3558  -7.2201  -7.1489
    -6.9459  -6.9126  -6.7833  -6.6976  -6.6080  -6.3822  -6.3572  -6.1879
    -6.0430  -5.9742  -5.7662  -5.6550  -5.2302  -5.1246  -5.1020  -5.0493
    -5.0149  -4.9711  -4.1281  -4.0787  -3.9544  -3.8763  -3.8460  -3.8097
    -2.5166  -2.4721  -2.3073  -2.2801  -1.3427  -0.9512  -0.8355  -0.6142
    -0.0626  -0.0017   0.1242   0.1291   0.1461   0.2283   0.3075   0.4062
     0.4880   0.6160   0.6978   0.8654   1.0801   1.1919   1.2379   1.3093
     1.3418   1.4444   1.4789   1.5438   1.9246   2.0000   2.0312   2.0969
     2.1174   2.1710   2.2185   2.4076   2.4603   2.5473   2.6436   2.7071

     occupation numbers 
     1.0000   1.0000   1.0000   1.0000   1.0000   1.0000   1.0000   1.0000
     1.0000   1.0000   1.0000   1.0000   1.0000   1.0000   1.0000   1.0000
     1.0000   1.0000   1.0000   1.0000   1.0000   1.0000   1.0000   1.0000
     1.0000   1.0000   1.0000   1.0000   1.0000   1.0000   1.0000   1.0000
     1.0000   1.0000   1.0000   1.0000   1.0000   1.0000   1.0000   1.0000
     1.0000   1.0000   1.0000   1.0000   1.0000   1.0000   1.0000   1.0000
     1.0000   1.0000   1.0000   1.0000   1.0000   1.0000   1.0000   1.0000
     1.0000   1.0000   1.0000   1.0000   1.0000   1.0000   1.0000   1.0000
     1.0000   1.0000   1.0000   1.0000   0.0000   0.0000   0.0000   0.0000
     0.0000   0.0000   0.0000   0.0000   0.0000   0.0000   0.0000   0.0000
     0.0000   0.0000   0.0000   0.0000   0.0000   0.0000   0.0000   0.0000
     0.0000   0.0000   0.0000   0.0000   0.0000   0.0000   0.0000   0.0000
     0.0000   0.0000   0.0000   0.0000   0.0000   0.0000   0.0000   0.0000
     0.0000   0.0000   0.0000   0.0000   0.0000   0.0000   0.0000   0.0000
     0.0000   0.0000   0.0000   0.0000   0.0000   0.0000   0.0000   0.0000

          k = 0.2750 0.1588 0.0000 ( 59510 PWs)   bands (ev):

   -73.4619 -73.4615 -71.3727 -71.3723 -47.5884 -47.5857 -47.2964 -47.2956
   -46.9695 -46.9664 -45.3662 -45.3630 -45.0706 -45.0695 -44.8939 -44.8903
   -18.3266 -18.3012 -17.8404 -17.7731 -17.6748 -17.6513 -17.6330 -17.6198
   -17.5414 -17.5009 -17.3852 -17.3574 -11.6565 -11.6051 -11.3083 -11.2401
   -10.1984 -10.0706  -9.7998  -9.6712  -9.4292  -9.3852  -9.1800  -9.1715
    -8.9570  -8.8786  -8.5374  -8.4462  -7.9722  -7.9658  -7.9069  -7.7594
    -7.7289  -7.6816  -7.5519  -7.5115  -7.4463  -7.3340  -7.2308  -7.1585
    -6.9662  -6.9242  -6.7971  -6.7105  -6.6287  -6.3896  -6.3558  -6.1900
    -6.0364  -5.9951  -5.7835  -5.6710  -5.2434  -5.1268  -5.1002  -5.0469
    -5.0164  -4.9667  -4.1327  -4.0852  -3.9514  -3.8749  -3.8437  -3.8078
    -2.5190  -2.4718  -2.3058  -2.2806  -1.3539  -0.9637  -0.8009  -0.5737
    -0.0634  -0.0226   0.1010   0.1268   0.1410   0.2268   0.3157   0.4078
     0.5241   0.6574   0.7008   0.8667   1.0355   1.1827   1.2203   1.2439
     1.3492   1.4046   1.4595   1.5598   1.8803   1.9571   1.9965   2.0946
     2.0988   2.1506   2.2034   2.3933   2.4621   2.5480   2.6260   2.6897

     occupation numbers 
     1.0000   1.0000   1.0000   1.0000   1.0000   1.0000   1.0000   1.0000
     1.0000   1.0000   1.0000   1.0000   1.0000   1.0000   1.0000   1.0000
     1.0000   1.0000   1.0000   1.0000   1.0000   1.0000   1.0000   1.0000
     1.0000   1.0000   1.0000   1.0000   1.0000   1.0000   1.0000   1.0000
     1.0000   1.0000   1.0000   1.0000   1.0000   1.0000   1.0000   1.0000
     1.0000   1.0000   1.0000   1.0000   1.0000   1.0000   1.0000   1.0000
     1.0000   1.0000   1.0000   1.0000   1.0000   1.0000   1.0000   1.0000
     1.0000   1.0000   1.0000   1.0000   1.0000   1.0000   1.0000   1.0000
     1.0000   1.0000   1.0000   1.0000   0.0000   0.0000   0.0000   0.0000
     0.0000   0.0000   0.0000   0.0000   0.0000   0.0000   0.0000   0.0000
     0.0000   0.0000   0.0000   0.0000   0.0000   0.0000   0.0000   0.0000
     0.0000   0.0000   0.0000   0.0000   0.0000   0.0000   0.0000   0.0000
     0.0000   0.0000   0.0000   0.0000   0.0000   0.0000   0.0000   0.0000
     0.0000   0.0000   0.0000   0.0000   0.0000   0.0000   0.0000   0.0000
     0.0000   0.0000   0.0000   0.0000   0.0000   0.0000   0.0000   0.0000

          k = 0.2875 0.1660 0.0000 ( 59498 PWs)   bands (ev):

   -73.4619 -73.4615 -71.3727 -71.3723 -47.5884 -47.5858 -47.2964 -47.2956
   -46.9694 -46.9665 -45.3661 -45.3630 -45.0706 -45.0695 -44.8939 -44.8903
   -18.3132 -18.2876 -17.8359 -17.7636 -17.6875 -17.6558 -17.6365 -17.6360
   -17.5430 -17.5055 -17.3915 -17.3592 -11.6601 -11.6052 -11.3140 -11.2385
   -10.1993 -10.0726  -9.7913  -9.6631  -9.4396  -9.3951  -9.1657  -9.1581
    -8.9440  -8.8698  -8.5165  -8.4250  -7.9964  -7.9453  -7.8890  -7.7570
    -7.7161  -7.6744  -7.5616  -7.4933  -7.4333  -7.3062  -7.2399  -7.1702
    -7.0005  -6.9202  -6.8117  -6.7204  -6.6441  -6.4049  -6.3441  -6.1930
    -6.0303  -6.0143  -5.8010  -5.6881  -5.2563  -5.1302  -5.0975  -5.0441
    -5.0170  -4.9622  -4.1372  -4.0922  -3.9484  -3.8738  -3.8419  -3.8053
    -2.5219  -2.4698  -2.3047  -2.2811  -1.3670  -0.9783  -0.7667  -0.5332
    -0.0614  -0.0452   0.0753   0.1231   0.1382   0.2227   0.3231   0.4107
     0.5600   0.6909   0.7065   0.8630   0.9851   1.1345   1.1806   1.2363
     1.3421   1.3615   1.4762   1.5837   1.8378   1.9161   1.9577   2.0617
     2.1009   2.1554   2.1874   2.3762   2.4687   2.5523   2.6077   2.6712

     occupation numbers 
     1.0000   1.0000   1.0000   1.0000   1.0000   1.0000   1.0000   1.0000
     1.0000   1.0000   1.0000   1.0000   1.0000   1.0000   1.0000   1.0000
     1.0000   1.0000   1.0000   1.0000   1.0000   1.0000   1.0000   1.0000
     1.0000   1.0000   1.0000   1.0000   1.0000   1.0000   1.0000   1.0000
     1.0000   1.0000   1.0000   1.0000   1.0000   1.0000   1.0000   1.0000
     1.0000   1.0000   1.0000   1.0000   1.0000   1.0000   1.0000   1.0000
     1.0000   1.0000   1.0000   1.0000   1.0000   1.0000   1.0000   1.0000
     1.0000   1.0000   1.0000   1.0000   1.0000   1.0000   1.0000   1.0000
     1.0000   1.0000   1.0000   1.0000   0.0000   0.0000   0.0000   0.0000
     0.0000   0.0000   0.0000   0.0000   0.0000   0.0000   0.0000   0.0000
     0.0000   0.0000   0.0000   0.0000   0.0000   0.0000   0.0000   0.0000
     0.0000   0.0000   0.0000   0.0000   0.0000   0.0000   0.0000   0.0000
     0.0000   0.0000   0.0000   0.0000   0.0000   0.0000   0.0000   0.0000
     0.0000   0.0000   0.0000   0.0000   0.0000   0.0000   0.0000   0.0000
     0.0000   0.0000   0.0000   0.0000   0.0000   0.0000   0.0000   0.0000

          k = 0.3000 0.1732 0.0000 ( 59478 PWs)   bands (ev):

   -73.4619 -73.4615 -71.3727 -71.3723 -47.5883 -47.5858 -47.2964 -47.2956
   -46.9694 -46.9665 -45.3661 -45.3631 -45.0706 -45.0696 -44.8938 -44.8904
   -18.2995 -18.2736 -17.8312 -17.7538 -17.7011 -17.6598 -17.6525 -17.6402
   -17.5446 -17.5098 -17.3981 -17.3609 -11.6635 -11.6051 -11.3202 -11.2371
   -10.2002 -10.0746  -9.7825  -9.6544  -9.4496  -9.4046  -9.1532  -9.1399
    -8.9302  -8.8596  -8.4963  -8.4050  -8.0242  -7.9310  -7.8731  -7.7556
    -7.7042  -7.6632  -7.5754  -7.4781  -7.4233  -7.2744  -7.2460  -7.1822
    -7.0364  -6.9117  -6.8267  -6.7284  -6.6542  -6.4217  -6.3296  -6.1967
    -6.0328  -6.0236  -5.8184  -5.7062  -5.2688  -5.1347  -5.0937  -5.0408
    -5.0168  -4.9578  -4.1417  -4.0996  -3.9455  -3.8729  -3.8407  -3.8022
    -2.5251  -2.4660  -2.3040  -2.2816  -1.3820  -0.9949  -0.7332  -0.4927
    -0.0700  -0.0565   0.0475   0.1153   0.1408   0.2169   0.3307   0.4160
     0.5917   0.6895   0.7390   0.8551   0.9329   1.0813   1.1272   1.2496
     1.2900   1.3729   1.4993   1.6123   1.7980   1.8780   1.9191   2.0217
     2.1102   2.1636   2.1756   2.3569   2.4803   2.5589   2.5899   2.6519

     occupation numbers 
     1.0000   1.0000   1.0000   1.0000   1.0000   1.0000   1.0000   1.0000
     1.0000   1.0000   1.0000   1.0000   1.0000   1.0000   1.0000   1.0000
     1.0000   1.0000   1.0000   1.0000   1.0000   1.0000   1.0000   1.0000
     1.0000   1.0000   1.0000   1.0000   1.0000   1.0000   1.0000   1.0000
     1.0000   1.0000   1.0000   1.0000   1.0000   1.0000   1.0000   1.0000
     1.0000   1.0000   1.0000   1.0000   1.0000   1.0000   1.0000   1.0000
     1.0000   1.0000   1.0000   1.0000   1.0000   1.0000   1.0000   1.0000
     1.0000   1.0000   1.0000   1.0000   1.0000   1.0000   1.0000   1.0000
     1.0000   1.0000   1.0000   1.0000   0.0000   0.0000   0.0000   0.0000
     0.0000   0.0000   0.0000   0.0000   0.0000   0.0000   0.0000   0.0000
     0.0000   0.0000   0.0000   0.0000   0.0000   0.0000   0.0000   0.0000
     0.0000   0.0000   0.0000   0.0000   0.0000   0.0000   0.0000   0.0000
     0.0000   0.0000   0.0000   0.0000   0.0000   0.0000   0.0000   0.0000
     0.0000   0.0000   0.0000   0.0000   0.0000   0.0000   0.0000   0.0000
     0.0000   0.0000   0.0000   0.0000   0.0000   0.0000   0.0000   0.0000

          k = 0.3125 0.1804 0.0000 ( 59508 PWs)   bands (ev):

   -73.4619 -73.4615 -71.3727 -71.3723 -47.5883 -47.5859 -47.2963 -47.2956
   -46.9693 -46.9666 -45.3660 -45.3631 -45.0705 -45.0696 -44.8937 -44.8905
   -18.2855 -18.2591 -17.8264 -17.7438 -17.7152 -17.6696 -17.6633 -17.6441
   -17.5460 -17.5140 -17.4051 -17.3627 -11.6666 -11.6046 -11.3268 -11.2357
   -10.2013 -10.0765  -9.7733  -9.6453  -9.4590  -9.4137  -9.1404  -9.1193
    -8.9156  -8.8481  -8.4771  -8.3866  -8.0543  -7.9245  -7.8594  -7.7548
    -7.6947  -7.6509  -7.5873  -7.4697  -7.4154  -7.2536  -7.2352  -7.1925
    -7.0701  -6.9009  -6.8419  -6.7352  -6.6591  -6.4387  -6.3146  -6.2010
    -6.0483  -6.0185  -5.8353  -5.7251  -5.2808  -5.1402  -5.0887  -5.0373
    -5.0161  -4.9536  -4.1462  -4.1075  -3.9428  -3.8721  -3.8400  -3.7988
    -2.5286  -2.4607  -2.3036  -2.2822  -1.3986  -1.0132  -0.7004  -0.4523
    -0.0965  -0.0494   0.0178   0.1060   0.1469   0.2102   0.3388   0.4235
     0.6154   0.6810   0.7680   0.8444   0.8811   1.0281   1.0838   1.2334
     1.2757   1.3830   1.5265   1.6441   1.7616   1.8435   1.8822   1.9830
     2.1187   2.1515   2.1882   2.3363   2.4963   2.5572   2.5828   2.6318

     occupation numbers 
     1.0000   1.0000   1.0000   1.0000   1.0000   1.0000   1.0000   1.0000
     1.0000   1.0000   1.0000   1.0000   1.0000   1.0000   1.0000   1.0000
     1.0000   1.0000   1.0000   1.0000   1.0000   1.0000   1.0000   1.0000
     1.0000   1.0000   1.0000   1.0000   1.0000   1.0000   1.0000   1.0000
     1.0000   1.0000   1.0000   1.0000   1.0000   1.0000   1.0000   1.0000
     1.0000   1.0000   1.0000   1.0000   1.0000   1.0000   1.0000   1.0000
     1.0000   1.0000   1.0000   1.0000   1.0000   1.0000   1.0000   1.0000
     1.0000   1.0000   1.0000   1.0000   1.0000   1.0000   1.0000   1.0000
     1.0000   1.0000   1.0000   1.0000   0.0000   0.0000   0.0000   0.0000
     0.0000   0.0000   0.0000   0.0000   0.0000   0.0000   0.0000   0.0000
     0.0000   0.0000   0.0000   0.0000   0.0000   0.0000   0.0000   0.0000
     0.0000   0.0000   0.0000   0.0000   0.0000   0.0000   0.0000   0.0000
     0.0000   0.0000   0.0000   0.0000   0.0000   0.0000   0.0000   0.0000
     0.0000   0.0000   0.0000   0.0000   0.0000   0.0000   0.0000   0.0000
     0.0000   0.0000   0.0000   0.0000   0.0000   0.0000   0.0000   0.0000

          k = 0.3250 0.1876 0.0000 ( 59508 PWs)   bands (ev):

   -73.4619 -73.4615 -71.3727 -71.3723 -47.5882 -47.5859 -47.2963 -47.2956
   -46.9693 -46.9666 -45.3660 -45.3632 -45.0705 -45.0696 -44.8937 -44.8905
   -18.2712 -18.2443 -17.8215 -17.7337 -17.7298 -17.6866 -17.6667 -17.6481
   -17.5474 -17.5181 -17.4125 -17.3644 -11.6695 -11.6039 -11.3336 -11.2344
   -10.2025 -10.0785  -9.7639  -9.6358  -9.4679  -9.4223  -9.1268  -9.0971
    -8.9003  -8.8350  -8.4587  -8.3696  -8.0858  -7.9254  -7.8493  -7.7539
    -7.6899  -7.6447  -7.5879  -7.4675  -7.4108  -7.2520  -7.2043  -7.1970
    -7.0986  -6.8888  -6.8564  -6.7414  -6.6599  -6.4556  -6.3008  -6.2050
    -6.0623  -6.0135  -5.8514  -5.7448  -5.2920  -5.1464  -5.0829  -5.0337
    -5.0150  -4.9495  -4.1505  -4.1156  -3.9401  -3.8715  -3.8397  -3.7951
    -2.5322  -2.4542  -2.3036  -2.2828  -1.4166  -1.0330  -0.6683  -0.4122
    -0.1253  -0.0403  -0.0133   0.0966   0.1554   0.2035   0.3475   0.4327
     0.6266   0.6716   0.7831   0.8304   0.8353   0.9764   1.0534   1.2025
     1.2863   1.3904   1.5564   1.6778   1.7293   1.8133   1.8479   1.9466
     2.1173   2.1449   2.2055   2.3154   2.5154   2.5393   2.5937   2.6121

     occupation numbers 
     1.0000   1.0000   1.0000   1.0000   1.0000   1.0000   1.0000   1.0000
     1.0000   1.0000   1.0000   1.0000   1.0000   1.0000   1.0000   1.0000
     1.0000   1.0000   1.0000   1.0000   1.0000   1.0000   1.0000   1.0000
     1.0000   1.0000   1.0000   1.0000   1.0000   1.0000   1.0000   1.0000
     1.0000   1.0000   1.0000   1.0000   1.0000   1.0000   1.0000   1.0000
     1.0000   1.0000   1.0000   1.0000   1.0000   1.0000   1.0000   1.0000
     1.0000   1.0000   1.0000   1.0000   1.0000   1.0000   1.0000   1.0000
     1.0000   1.0000   1.0000   1.0000   1.0000   1.0000   1.0000   1.0000
     1.0000   1.0000   1.0000   1.0000   0.0000   0.0000   0.0000   0.0000
     0.0000   0.0000   0.0000   0.0000   0.0000   0.0000   0.0000   0.0000
     0.0000   0.0000   0.0000   0.0000   0.0000   0.0000   0.0000   0.0000
     0.0000   0.0000   0.0000   0.0000   0.0000   0.0000   0.0000   0.0000
     0.0000   0.0000   0.0000   0.0000   0.0000   0.0000   0.0000   0.0000
     0.0000   0.0000   0.0000   0.0000   0.0000   0.0000   0.0000   0.0000
     0.0000   0.0000   0.0000   0.0000   0.0000   0.0000   0.0000   0.0000

          k = 0.3375 0.1949 0.0000 ( 59494 PWs)   bands (ev):

   -73.4619 -73.4615 -71.3727 -71.3723 -47.5882 -47.5860 -47.2963 -47.2956
   -46.9692 -46.9667 -45.3659 -45.3633 -45.0705 -45.0696 -44.8936 -44.8906
   -18.2566 -18.2292 -17.8165 -17.7447 -17.7234 -17.7038 -17.6699 -17.6523
   -17.5487 -17.5219 -17.4201 -17.3660 -11.6721 -11.6029 -11.3406 -11.2331
   -10.2037 -10.0804  -9.7542  -9.6260  -9.4763  -9.4305  -9.1122  -9.0738
    -8.8844  -8.8203  -8.4412  -8.3542  -8.1183  -7.9328  -7.8445  -7.7533
    -7.6953  -7.6423  -7.5744  -7.4686  -7.4115  -7.2483  -7.2071  -7.1686
    -7.1151  -6.8798  -6.8660  -6.7469  -6.6576  -6.4723  -6.2906  -6.2072
    -6.0745  -6.0087  -5.8665  -5.7651  -5.3024  -5.1531  -5.0765  -5.0300
    -5.0135  -4.9457  -4.1547  -4.1240  -3.9375  -3.8711  -3.8396  -3.7914
    -2.5358  -2.4465  -2.3038  -2.2834  -1.4357  -1.0538  -0.6372  -0.3723
    -0.1560  -0.0488  -0.0261   0.0881   0.1658   0.1972   0.3564   0.4432
     0.6229   0.6628   0.7723   0.7920   0.8271   0.9267   1.0374   1.1847
     1.2959   1.3945   1.5884   1.7001   1.7134   1.7881   1.8166   1.9130
     2.1028   2.1504   2.2226   2.2951   2.5136   2.5397   2.5886   2.6144

     occupation numbers 
     1.0000   1.0000   1.0000   1.0000   1.0000   1.0000   1.0000   1.0000
     1.0000   1.0000   1.0000   1.0000   1.0000   1.0000   1.0000   1.0000
     1.0000   1.0000   1.0000   1.0000   1.0000   1.0000   1.0000   1.0000
     1.0000   1.0000   1.0000   1.0000   1.0000   1.0000   1.0000   1.0000
     1.0000   1.0000   1.0000   1.0000   1.0000   1.0000   1.0000   1.0000
     1.0000   1.0000   1.0000   1.0000   1.0000   1.0000   1.0000   1.0000
     1.0000   1.0000   1.0000   1.0000   1.0000   1.0000   1.0000   1.0000
     1.0000   1.0000   1.0000   1.0000   1.0000   1.0000   1.0000   1.0000
     1.0000   1.0000   1.0000   1.0000   0.0000   0.0000   0.0000   0.0000
     0.0000   0.0000   0.0000   0.0000   0.0000   0.0000   0.0000   0.0000
     0.0000   0.0000   0.0000   0.0000   0.0000   0.0000   0.0000   0.0000
     0.0000   0.0000   0.0000   0.0000   0.0000   0.0000   0.0000   0.0000
     0.0000   0.0000   0.0000   0.0000   0.0000   0.0000   0.0000   0.0000
     0.0000   0.0000   0.0000   0.0000   0.0000   0.0000   0.0000   0.0000
     0.0000   0.0000   0.0000   0.0000   0.0000   0.0000   0.0000   0.0000

          k = 0.3500 0.2021 0.0000 ( 59489 PWs)   bands (ev):

   -73.4619 -73.4615 -71.3727 -71.3723 -47.5881 -47.5860 -47.2963 -47.2956
   -46.9691 -46.9668 -45.3659 -45.3633 -45.0705 -45.0696 -44.8935 -44.8907
   -18.2418 -18.2138 -17.8114 -17.7599 -17.7220 -17.7123 -17.6729 -17.6567
   -17.5498 -17.5255 -17.4281 -17.3676 -11.6746 -11.6017 -11.3477 -11.2320
   -10.2049 -10.0822  -9.7445  -9.6162  -9.4840  -9.4381  -9.0967  -9.0498
    -8.8682  -8.8037  -8.4243  -8.3401  -8.1515  -7.9461  -7.8460  -7.7569
    -7.7071  -7.6360  -7.5560  -7.4695  -7.4179  -7.2423  -7.2143  -7.1526
    -7.1043  -6.8884  -6.8565  -6.7516  -6.6534  -6.4887  -6.2861  -6.2055
    -6.0851  -6.0041  -5.8803  -5.7858  -5.3120  -5.1600  -5.0697  -5.0264
    -5.0117  -4.9420  -4.1588  -4.1324  -3.9350  -3.8708  -3.8397  -3.7877
    -2.5394  -2.4380  -2.3043  -2.2841  -1.4555  -1.0753  -0.6072  -0.3328
    -0.1883  -0.0825  -0.0128   0.0806   0.1772   0.1921   0.3655   0.4543
     0.6088   0.6514   0.7325   0.7709   0.8179   0.8796   1.0353   1.1816
     1.3025   1.3951   1.6216   1.6782   1.7423   1.7706   1.7904   1.8826
     2.0857   2.1576   2.2370   2.2776   2.4888   2.5532   2.5774   2.6306

     occupation numbers 
     1.0000   1.0000   1.0000   1.0000   1.0000   1.0000   1.0000   1.0000
     1.0000   1.0000   1.0000   1.0000   1.0000   1.0000   1.0000   1.0000
     1.0000   1.0000   1.0000   1.0000   1.0000   1.0000   1.0000   1.0000
     1.0000   1.0000   1.0000   1.0000   1.0000   1.0000   1.0000   1.0000
     1.0000   1.0000   1.0000   1.0000   1.0000   1.0000   1.0000   1.0000
     1.0000   1.0000   1.0000   1.0000   1.0000   1.0000   1.0000   1.0000
     1.0000   1.0000   1.0000   1.0000   1.0000   1.0000   1.0000   1.0000
     1.0000   1.0000   1.0000   1.0000   1.0000   1.0000   1.0000   1.0000
     1.0000   1.0000   1.0000   1.0000   0.0000   0.0000   0.0000   0.0000
     0.0000   0.0000   0.0000   0.0000   0.0000   0.0000   0.0000   0.0000
     0.0000   0.0000   0.0000   0.0000   0.0000   0.0000   0.0000   0.0000
     0.0000   0.0000   0.0000   0.0000   0.0000   0.0000   0.0000   0.0000
     0.0000   0.0000   0.0000   0.0000   0.0000   0.0000   0.0000   0.0000
     0.0000   0.0000   0.0000   0.0000   0.0000   0.0000   0.0000   0.0000
     0.0000   0.0000   0.0000   0.0000   0.0000   0.0000   0.0000   0.0000

          k = 0.3625 0.2093 0.0000 ( 59504 PWs)   bands (ev):

   -73.4619 -73.4615 -71.3727 -71.3723 -47.5881 -47.5861 -47.2963 -47.2956
   -46.9691 -46.9668 -45.3658 -45.3634 -45.0705 -45.0696 -44.8935 -44.8907
   -18.2269 -18.1982 -17.8064 -17.7751 -17.7393 -17.7021 -17.6757 -17.6611
   -17.5509 -17.5289 -17.4363 -17.3691 -11.6767 -11.6002 -11.3548 -11.2309
   -10.2062 -10.0840  -9.7348  -9.6064  -9.4910  -9.4451  -9.0805  -9.0255
    -8.8519  -8.7851  -8.4080  -8.3275  -8.1848  -7.9648  -7.8536  -7.7738
    -7.7108  -7.6284  -7.5387  -7.4669  -7.4284  -7.2352  -7.2243  -7.1441
    -7.0733  -6.9008  -6.8418  -6.7553  -6.6482  -6.5048  -6.2880  -6.1996
    -6.0943  -5.9997  -5.8927  -5.8067  -5.3206  -5.1669  -5.0628  -5.0229
    -5.0096  -4.9387  -4.1626  -4.1408  -3.9326  -3.8707  -3.8398  -3.7842
    -2.5428  -2.4287  -2.3050  -2.2849  -1.4758  -1.0972  -0.5783  -0.2939
    -0.2214  -0.1174   0.0029   0.0745   0.1840   0.1936   0.3744   0.4657
     0.5897   0.6353   0.6908   0.7489   0.8022   0.8353   1.0438   1.1905
     1.3060   1.3927   1.6528   1.6628   1.7435   1.7590   1.7935   1.8558
     2.0693   2.1634   2.2414   2.2705   2.4614   2.5373   2.5948   2.6188

     occupation numbers 
     1.0000   1.0000   1.0000   1.0000   1.0000   1.0000   1.0000   1.0000
     1.0000   1.0000   1.0000   1.0000   1.0000   1.0000   1.0000   1.0000
     1.0000   1.0000   1.0000   1.0000   1.0000   1.0000   1.0000   1.0000
     1.0000   1.0000   1.0000   1.0000   1.0000   1.0000   1.0000   1.0000
     1.0000   1.0000   1.0000   1.0000   1.0000   1.0000   1.0000   1.0000
     1.0000   1.0000   1.0000   1.0000   1.0000   1.0000   1.0000   1.0000
     1.0000   1.0000   1.0000   1.0000   1.0000   1.0000   1.0000   1.0000
     1.0000   1.0000   1.0000   1.0000   1.0000   1.0000   1.0000   1.0000
     1.0000   1.0000   1.0000   1.0000   0.0000   0.0000   0.0000   0.0000
     0.0000   0.0000   0.0000   0.0000   0.0000   0.0000   0.0000   0.0000
     0.0000   0.0000   0.0000   0.0000   0.0000   0.0000   0.0000   0.0000
     0.0000   0.0000   0.0000   0.0000   0.0000   0.0000   0.0000   0.0000
     0.0000   0.0000   0.0000   0.0000   0.0000   0.0000   0.0000   0.0000
     0.0000   0.0000   0.0000   0.0000   0.0000   0.0000   0.0000   0.0000
     0.0000   0.0000   0.0000   0.0000   0.0000   0.0000   0.0000   0.0000

          k = 0.3750 0.2165 0.0000 ( 59492 PWs)   bands (ev):

   -73.4619 -73.4615 -71.3727 -71.3723 -47.5880 -47.5861 -47.2963 -47.2957
   -46.9690 -46.9669 -45.3657 -45.3635 -45.0704 -45.0697 -44.8934 -44.8908
   -18.2119 -18.1824 -17.8015 -17.7902 -17.7569 -17.6916 -17.6782 -17.6656
   -17.5519 -17.5321 -17.4447 -17.3705 -11.6787 -11.5986 -11.3618 -11.2300
   -10.2075 -10.0858  -9.7253  -9.5969  -9.4973  -9.4515  -9.0638  -9.0013
    -8.8356  -8.7640  -8.3921  -8.3163  -8.2173  -7.9885  -7.8666  -7.8021
    -7.7047  -7.6228  -7.5253  -7.4600  -7.4398  -7.2347  -7.2270  -7.1317
    -7.0388  -6.9126  -6.8270  -6.7578  -6.6429  -6.5204  -6.2947  -6.1914
    -6.1021  -5.9953  -5.9037  -5.8273  -5.3283  -5.1737  -5.0559  -5.0195
    -5.0073  -4.9356  -4.1663  -4.1491  -3.9303  -3.8707  -3.8400  -3.7808
    -2.5460  -2.4190  -2.3059  -2.2858  -1.4960  -1.1188  -0.5508  -0.2612
    -0.2495  -0.1522   0.0200   0.0698   0.1816   0.2063   0.3831   0.4767
     0.5686   0.6156   0.6515   0.7243   0.7811   0.7949   1.0589   1.2063
     1.3069   1.3881   1.6473   1.6876   1.7310   1.7421   1.8168   1.8377
     2.0550   2.1671   2.2318   2.2788   2.4319   2.5140   2.5883   2.6178

     occupation numbers 
     1.0000   1.0000   1.0000   1.0000   1.0000   1.0000   1.0000   1.0000
     1.0000   1.0000   1.0000   1.0000   1.0000   1.0000   1.0000   1.0000
     1.0000   1.0000   1.0000   1.0000   1.0000   1.0000   1.0000   1.0000
     1.0000   1.0000   1.0000   1.0000   1.0000   1.0000   1.0000   1.0000
     1.0000   1.0000   1.0000   1.0000   1.0000   1.0000   1.0000   1.0000
     1.0000   1.0000   1.0000   1.0000   1.0000   1.0000   1.0000   1.0000
     1.0000   1.0000   1.0000   1.0000   1.0000   1.0000   1.0000   1.0000
     1.0000   1.0000   1.0000   1.0000   1.0000   1.0000   1.0000   1.0000
     1.0000   1.0000   1.0000   1.0000   0.0000   0.0000   0.0000   0.0000
     0.0000   0.0000   0.0000   0.0000   0.0000   0.0000   0.0000   0.0000
     0.0000   0.0000   0.0000   0.0000   0.0000   0.0000   0.0000   0.0000
     0.0000   0.0000   0.0000   0.0000   0.0000   0.0000   0.0000   0.0000
     0.0000   0.0000   0.0000   0.0000   0.0000   0.0000   0.0000   0.0000
     0.0000   0.0000   0.0000   0.0000   0.0000   0.0000   0.0000   0.0000
     0.0000   0.0000   0.0000   0.0000   0.0000   0.0000   0.0000   0.0000

          k = 0.3875 0.2237 0.0000 ( 59478 PWs)   bands (ev):

   -73.4619 -73.4615 -71.3727 -71.3723 -47.5880 -47.5861 -47.2963 -47.2957
   -46.9690 -46.9669 -45.3657 -45.3635 -45.0704 -45.0697 -44.8933 -44.8909
   -18.1970 -18.1666 -17.8064 -17.7956 -17.7744 -17.6814 -17.6802 -17.6702
   -17.5528 -17.5351 -17.4532 -17.3718 -11.6804 -11.5969 -11.3686 -11.2291
   -10.2088 -10.0875  -9.7161  -9.5880  -9.5028  -9.4572  -9.0468  -8.9779
    -8.8197  -8.7404  -8.3762  -8.3080  -8.2472  -8.0168  -7.8840  -7.8352
    -7.6945  -7.6203  -7.5155  -7.4623  -7.4379  -7.2411  -7.2193  -7.1165
    -7.0046  -6.9230  -6.8131  -6.7585  -6.6380  -6.5354  -6.3040  -6.1836
    -6.1080  -5.9910  -5.9133  -5.8471  -5.3352  -5.1803  -5.0494  -5.0164
    -5.0047  -4.9327  -4.1697  -4.1571  -3.9281  -3.8709  -3.8402  -3.7777
    -2.5489  -2.4090  -2.3069  -2.2868  -1.5158  -1.1400  -0.5249  -0.2894
    -0.2181  -0.1852   0.0377   0.0672   0.1788   0.2207   0.3914   0.4866
     0.5468   0.5942   0.6157   0.6974   0.7542   0.7621   1.0771   1.2238
     1.3066   1.3827   1.6399   1.7065   1.7250   1.7337   1.8075   1.8549
     2.0436   2.1689   2.2203   2.2916   2.4002   2.4886   2.5598   2.6351

     occupation numbers 
     1.0000   1.0000   1.0000   1.0000   1.0000   1.0000   1.0000   1.0000
     1.0000   1.0000   1.0000   1.0000   1.0000   1.0000   1.0000   1.0000
     1.0000   1.0000   1.0000   1.0000   1.0000   1.0000   1.0000   1.0000
     1.0000   1.0000   1.0000   1.0000   1.0000   1.0000   1.0000   1.0000
     1.0000   1.0000   1.0000   1.0000   1.0000   1.0000   1.0000   1.0000
     1.0000   1.0000   1.0000   1.0000   1.0000   1.0000   1.0000   1.0000
     1.0000   1.0000   1.0000   1.0000   1.0000   1.0000   1.0000   1.0000
     1.0000   1.0000   1.0000   1.0000   1.0000   1.0000   1.0000   1.0000
     1.0000   1.0000   1.0000   1.0000   0.0000   0.0000   0.0000   0.0000
     0.0000   0.0000   0.0000   0.0000   0.0000   0.0000   0.0000   0.0000
     0.0000   0.0000   0.0000   0.0000   0.0000   0.0000   0.0000   0.0000
     0.0000   0.0000   0.0000   0.0000   0.0000   0.0000   0.0000   0.0000
     0.0000   0.0000   0.0000   0.0000   0.0000   0.0000   0.0000   0.0000
     0.0000   0.0000   0.0000   0.0000   0.0000   0.0000   0.0000   0.0000
     0.0000   0.0000   0.0000   0.0000   0.0000   0.0000   0.0000   0.0000

          k = 0.4000 0.2309 0.0000 ( 59468 PWs)   bands (ev):

   -73.4619 -73.4615 -71.3727 -71.3723 -47.5879 -47.5862 -47.2963 -47.2957
   -46.9689 -46.9670 -45.3656 -45.3636 -45.0704 -45.0697 -44.8933 -44.8909
   -18.1823 -18.1508 -17.8212 -17.7923 -17.7903 -17.6828 -17.6748 -17.6704
   -17.5536 -17.5379 -17.4618 -17.3730 -11.6820 -11.5951 -11.3752 -11.2283
   -10.2100 -10.0890  -9.7073  -9.5798  -9.5073  -9.4623  -9.0297  -8.9557
    -8.8041  -8.7139  -8.3603  -8.3098  -8.2664  -8.0493  -7.9053  -7.8696
    -7.6829  -7.6205  -7.5082  -7.4745  -7.4234  -7.2429  -7.2112  -7.1012
    -6.9725  -6.9313  -6.8017  -6.7564  -6.6342  -6.5494  -6.3144  -6.1781
    -6.1113  -5.9869  -5.9219  -5.8656  -5.3412  -5.1865  -5.0434  -5.0136
    -5.0018  -4.9302  -4.1729  -4.1647  -3.9260  -3.8713  -3.8403  -3.7748
    -2.5516  -2.3988  -2.3082  -2.2878  -1.5347  -1.1601  -0.5009  -0.3214
    -0.2218  -0.1778   0.0515   0.0705   0.1767   0.2355   0.3990   0.4934
     0.5264   0.5708   0.5859   0.6683   0.7234   0.7380   1.0956   1.2383
     1.3066   1.3785   1.6366   1.6953   1.7277   1.7484   1.7927   1.8773
     2.0359   2.1692   2.2118   2.3062   2.3669   2.4616   2.5341   2.6141

     occupation numbers 
     1.0000   1.0000   1.0000   1.0000   1.0000   1.0000   1.0000   1.0000
     1.0000   1.0000   1.0000   1.0000   1.0000   1.0000   1.0000   1.0000
     1.0000   1.0000   1.0000   1.0000   1.0000   1.0000   1.0000   1.0000
     1.0000   1.0000   1.0000   1.0000   1.0000   1.0000   1.0000   1.0000
     1.0000   1.0000   1.0000   1.0000   1.0000   1.0000   1.0000   1.0000
     1.0000   1.0000   1.0000   1.0000   1.0000   1.0000   1.0000   1.0000
     1.0000   1.0000   1.0000   1.0000   1.0000   1.0000   1.0000   1.0000
     1.0000   1.0000   1.0000   1.0000   1.0000   1.0000   1.0000   1.0000
     1.0000   1.0000   1.0000   1.0000   0.0000   0.0000   0.0000   0.0000
     0.0000   0.0000   0.0000   0.0000   0.0000   0.0000   0.0000   0.0000
     0.0000   0.0000   0.0000   0.0000   0.0000   0.0000   0.0000   0.0000
     0.0000   0.0000   0.0000   0.0000   0.0000   0.0000   0.0000   0.0000
     0.0000   0.0000   0.0000   0.0000   0.0000   0.0000   0.0000   0.0000
     0.0000   0.0000   0.0000   0.0000   0.0000   0.0000   0.0000   0.0000
     0.0000   0.0000   0.0000   0.0000   0.0000   0.0000   0.0000   0.0000

          k = 0.4125 0.2382 0.0000 ( 59454 PWs)   bands (ev):

   -73.4619 -73.4615 -71.3727 -71.3723 -47.5879 -47.5862 -47.2963 -47.2957
   -46.9689 -46.9670 -45.3656 -45.3636 -45.0704 -45.0697 -44.8932 -44.8910
   -18.1679 -18.1352 -17.8358 -17.8088 -17.7858 -17.6848 -17.6793 -17.6601
   -17.5543 -17.5404 -17.4703 -17.3741 -11.6833 -11.5932 -11.3813 -11.2277
   -10.2111 -10.0905  -9.6991  -9.5728  -9.5109  -9.4666  -9.0131  -8.9352
    -8.7891  -8.6847  -8.3459  -8.3282  -8.2657  -8.0852  -7.9300  -7.9038
    -7.6714  -7.6219  -7.5058  -7.4840  -7.4078  -7.2398  -7.2030  -7.0877
    -6.9484  -6.9318  -6.7934  -6.7508  -6.6325  -6.5620  -6.3249  -6.1763
    -6.1116  -5.9833  -5.9297  -5.8820  -5.3463  -5.1922  -5.0381  -5.0110
    -4.9987  -4.9279  -4.1757  -4.1717  -3.9241  -3.8717  -3.8404  -3.7723
    -2.5540  -2.3888  -2.3097  -2.2888  -1.5525  -1.1789  -0.4790  -0.3515
    -0.2518  -0.1431   0.0548   0.0860   0.1754   0.2502   0.4058   0.4903
     0.5118   0.5460   0.5651   0.6373   0.6965   0.7166   1.1126   1.2467
     1.3078   1.3778   1.6367   1.6824   1.7272   1.7635   1.7860   1.8941
     2.0323   2.1689   2.2077   2.3227   2.3324   2.4330   2.5117   2.5869

     occupation numbers 
     1.0000   1.0000   1.0000   1.0000   1.0000   1.0000   1.0000   1.0000
     1.0000   1.0000   1.0000   1.0000   1.0000   1.0000   1.0000   1.0000
     1.0000   1.0000   1.0000   1.0000   1.0000   1.0000   1.0000   1.0000
     1.0000   1.0000   1.0000   1.0000   1.0000   1.0000   1.0000   1.0000
     1.0000   1.0000   1.0000   1.0000   1.0000   1.0000   1.0000   1.0000
     1.0000   1.0000   1.0000   1.0000   1.0000   1.0000   1.0000   1.0000
     1.0000   1.0000   1.0000   1.0000   1.0000   1.0000   1.0000   1.0000
     1.0000   1.0000   1.0000   1.0000   1.0000   1.0000   1.0000   1.0000
     1.0000   1.0000   1.0000   1.0000   0.0000   0.0000   0.0000   0.0000
     0.0000   0.0000   0.0000   0.0000   0.0000   0.0000   0.0000   0.0000
     0.0000   0.0000   0.0000   0.0000   0.0000   0.0000   0.0000   0.0000
     0.0000   0.0000   0.0000   0.0000   0.0000   0.0000   0.0000   0.0000
     0.0000   0.0000   0.0000   0.0000   0.0000   0.0000   0.0000   0.0000
     0.0000   0.0000   0.0000   0.0000   0.0000   0.0000   0.0000   0.0000
     0.0000   0.0000   0.0000   0.0000   0.0000   0.0000   0.0000   0.0000

          k = 0.4250 0.2454 0.0000 ( 59430 PWs)   bands (ev):

   -73.4619 -73.4615 -71.3727 -71.3723 -47.5879 -47.5863 -47.2962 -47.2957
   -46.9688 -46.9671 -45.3655 -45.3637 -45.0704 -45.0697 -44.8932 -44.8910
   -18.1541 -18.1201 -17.8499 -17.8252 -17.7811 -17.6866 -17.6835 -17.6501
   -17.5548 -17.5427 -17.4786 -17.3751 -11.6844 -11.5914 -11.3869 -11.2271
   -10.2122 -10.0917  -9.6917  -9.5670  -9.5135  -9.4701  -8.9972  -8.9168
    -8.7746  -8.6527  -8.3602  -8.3245  -8.2563  -8.1235  -7.9574  -7.9368
    -7.6613  -7.6227  -7.5122  -7.4852  -7.3934  -7.2326  -7.1948  -7.0774
    -6.9476  -6.9094  -6.7877  -6.7424  -6.6338  -6.5720  -6.3349  -6.1778
    -6.1091  -5.9812  -5.9368  -5.8953  -5.3507  -5.1974  -5.0336  -5.0088
    -4.9955  -4.9259  -4.1788  -4.1777  -3.9224  -3.8722  -3.8405  -3.7700
    -2.5562  -2.3789  -2.3114  -2.2899  -1.5686  -1.1959  -0.4599  -0.3788
    -0.2796  -0.1094   0.0544   0.1063   0.1750   0.2644   0.4117   0.4746
     0.4969   0.5307   0.5521   0.6058   0.6739   0.6978   1.1269   1.2492
     1.3086   1.3821   1.6395   1.6717   1.7287   1.7621   1.7939   1.9048
     2.0326   2.1691   2.2087   2.2970   2.3423   2.4033   2.4927   2.5635

     occupation numbers 
     1.0000   1.0000   1.0000   1.0000   1.0000   1.0000   1.0000   1.0000
     1.0000   1.0000   1.0000   1.0000   1.0000   1.0000   1.0000   1.0000
     1.0000   1.0000   1.0000   1.0000   1.0000   1.0000   1.0000   1.0000
     1.0000   1.0000   1.0000   1.0000   1.0000   1.0000   1.0000   1.0000
     1.0000   1.0000   1.0000   1.0000   1.0000   1.0000   1.0000   1.0000
     1.0000   1.0000   1.0000   1.0000   1.0000   1.0000   1.0000   1.0000
     1.0000   1.0000   1.0000   1.0000   1.0000   1.0000   1.0000   1.0000
     1.0000   1.0000   1.0000   1.0000   1.0000   1.0000   1.0000   1.0000
     1.0000   1.0000   1.0000   1.0000   0.0000   0.0000   0.0000   0.0000
     0.0000   0.0000   0.0000   0.0000   0.0000   0.0000   0.0000   0.0000
     0.0000   0.0000   0.0000   0.0000   0.0000   0.0000   0.0000   0.0000
     0.0000   0.0000   0.0000   0.0000   0.0000   0.0000   0.0000   0.0000
     0.0000   0.0000   0.0000   0.0000   0.0000   0.0000   0.0000   0.0000
     0.0000   0.0000   0.0000   0.0000   0.0000   0.0000   0.0000   0.0000
     0.0000   0.0000   0.0000   0.0000   0.0000   0.0000   0.0000   0.0000

          k = 0.4375 0.2526 0.0000 ( 59426 PWs)   bands (ev):

   -73.4619 -73.4615 -71.3727 -71.3723 -47.5878 -47.5863 -47.2962 -47.2957
   -46.9688 -46.9671 -45.3655 -45.3637 -45.0704 -45.0697 -44.8931 -44.8911
   -18.1412 -18.1056 -17.8631 -17.8407 -17.7767 -17.6889 -17.6868 -17.6405
   -17.5553 -17.5449 -17.4866 -17.3759 -11.6854 -11.5896 -11.3919 -11.2266
   -10.2131 -10.0929  -9.6852  -9.5626  -9.5150  -9.4729  -8.9826  -8.9009
    -8.7607  -8.6184  -8.3869  -8.3077  -8.2455  -8.1623  -7.9869  -7.9680
    -7.6541  -7.6210  -7.5226  -7.4828  -7.3808  -7.2227  -7.1866  -7.0712
    -6.9497  -6.8849  -6.7827  -6.7329  -6.6390  -6.5789  -6.3439  -6.1816
    -6.1049  -5.9816  -5.9423  -5.9052  -5.3543  -5.2019  -5.0299  -5.0068
    -4.9922  -4.9242  -4.1841  -4.1803  -3.9208  -3.8728  -3.8405  -3.7681
    -2.5580  -2.3695  -2.3135  -2.2909  -1.5829  -1.2109  -0.4447  -0.4019
    -0.3039  -0.0779   0.0536   0.1269   0.1757   0.2779   0.4162   0.4556
     0.4742   0.5229   0.5477   0.5755   0.6550   0.6818   1.1378   1.2484
     1.3079   1.3903   1.6440   1.6636   1.7315   1.7577   1.8022   1.9101
     2.0365   2.1709   2.2147   2.2621   2.3614   2.3756   2.4769   2.5441

     occupation numbers 
     1.0000   1.0000   1.0000   1.0000   1.0000   1.0000   1.0000   1.0000
     1.0000   1.0000   1.0000   1.0000   1.0000   1.0000   1.0000   1.0000
     1.0000   1.0000   1.0000   1.0000   1.0000   1.0000   1.0000   1.0000
     1.0000   1.0000   1.0000   1.0000   1.0000   1.0000   1.0000   1.0000
     1.0000   1.0000   1.0000   1.0000   1.0000   1.0000   1.0000   1.0000
     1.0000   1.0000   1.0000   1.0000   1.0000   1.0000   1.0000   1.0000
     1.0000   1.0000   1.0000   1.0000   1.0000   1.0000   1.0000   1.0000
     1.0000   1.0000   1.0000   1.0000   1.0000   1.0000   1.0000   1.0000
     1.0000   1.0000   1.0000   1.0000   0.0000   0.0000   0.0000   0.0000
     0.0000   0.0000   0.0000   0.0000   0.0000   0.0000   0.0000   0.0000
     0.0000   0.0000   0.0000   0.0000   0.0000   0.0000   0.0000   0.0000
     0.0000   0.0000   0.0000   0.0000   0.0000   0.0000   0.0000   0.0000
     0.0000   0.0000   0.0000   0.0000   0.0000   0.0000   0.0000   0.0000
     0.0000   0.0000   0.0000   0.0000   0.0000   0.0000   0.0000   0.0000
     0.0000   0.0000   0.0000   0.0000   0.0000   0.0000   0.0000   0.0000

          k = 0.4500 0.2598 0.0000 ( 59428 PWs)   bands (ev):

   -73.4619 -73.4616 -71.3727 -71.3723 -47.5878 -47.5863 -47.2962 -47.2957
   -46.9688 -46.9671 -45.3655 -45.3637 -45.0704 -45.0697 -44.8931 -44.8911
   -18.1295 -18.0922 -17.8751 -17.8549 -17.7726 -17.6923 -17.6885 -17.6317
   -17.5558 -17.5469 -17.4939 -17.3765 -11.6861 -11.5881 -11.3962 -11.2262
   -10.2139 -10.0938  -9.6797  -9.5596  -9.5156  -9.4749  -8.9697  -8.8876
    -8.7476  -8.5823  -8.4116  -8.2910  -8.2407  -8.1937  -8.0168  -7.9974
    -7.6508  -7.6158  -7.5329  -7.4806  -7.3702  -7.2116  -7.1784  -7.0691
    -6.9506  -6.8639  -6.7767  -6.7239  -6.6479  -6.5825  -6.3516  -6.1861
    -6.1002  -5.9855  -5.9451  -5.9121  -5.3572  -5.2058  -5.0271  -5.0052
    -4.9891  -4.9229  -4.1889  -4.1821  -3.9195  -3.8733  -3.8405  -3.7665
    -2.5595  -2.3607  -2.3159  -2.2918  -1.5950  -1.2236  -0.4383  -0.4158
    -0.3239  -0.0495   0.0528   0.1453   0.1792   0.2902   0.4185   0.4354
     0.4537   0.5145   0.5449   0.5524   0.6395   0.6687   1.1453   1.2462
     1.3063   1.3999   1.6485   1.6586   1.7348   1.7559   1.8058   1.9116
     2.0435   2.1750   2.2234   2.2294   2.3402   2.3897   2.4643   2.5287

     occupation numbers 
     1.0000   1.0000   1.0000   1.0000   1.0000   1.0000   1.0000   1.0000
     1.0000   1.0000   1.0000   1.0000   1.0000   1.0000   1.0000   1.0000
     1.0000   1.0000   1.0000   1.0000   1.0000   1.0000   1.0000   1.0000
     1.0000   1.0000   1.0000   1.0000   1.0000   1.0000   1.0000   1.0000
     1.0000   1.0000   1.0000   1.0000   1.0000   1.0000   1.0000   1.0000
     1.0000   1.0000   1.0000   1.0000   1.0000   1.0000   1.0000   1.0000
     1.0000   1.0000   1.0000   1.0000   1.0000   1.0000   1.0000   1.0000
     1.0000   1.0000   1.0000   1.0000   1.0000   1.0000   1.0000   1.0000
     1.0000   1.0000   1.0000   1.0000   0.0000   0.0000   0.0000   0.0000
     0.0000   0.0000   0.0000   0.0000   0.0000   0.0000   0.0000   0.0000
     0.0000   0.0000   0.0000   0.0000   0.0000   0.0000   0.0000   0.0000
     0.0000   0.0000   0.0000   0.0000   0.0000   0.0000   0.0000   0.0000
     0.0000   0.0000   0.0000   0.0000   0.0000   0.0000   0.0000   0.0000
     0.0000   0.0000   0.0000   0.0000   0.0000   0.0000   0.0000   0.0000
     0.0000   0.0000   0.0000   0.0000   0.0000   0.0000   0.0000   0.0000

          k = 0.4625 0.2670 0.0000 ( 59430 PWs)   bands (ev):

   -73.4619 -73.4616 -71.3727 -71.3723 -47.5878 -47.5864 -47.2962 -47.2957
   -46.9687 -46.9672 -45.3654 -45.3638 -45.0704 -45.0698 -44.8930 -44.8912
   -18.1194 -18.0804 -17.8853 -17.8674 -17.7691 -17.6955 -17.6896 -17.6238
   -17.5561 -17.5488 -17.5003 -17.3771 -11.6867 -11.5868 -11.3996 -11.2259
   -10.2145 -10.0946  -9.6753  -9.5578  -9.5157  -9.4762  -8.9591  -8.8772
    -8.7359  -8.5456  -8.4317  -8.2830  -8.2547  -8.1970  -8.0455  -8.0246
    -7.6502  -7.6083  -7.5423  -7.4792  -7.3618  -7.2012  -7.1705  -7.0703
    -6.9505  -6.8473  -6.7691  -6.7160  -6.6592  -6.5840  -6.3578  -6.1905
    -6.0958  -5.9916  -5.9453  -5.9166  -5.3594  -5.2088  -5.0250  -5.0040
    -4.9864  -4.9218  -4.1927  -4.1835  -3.9184  -3.8738  -3.8405  -3.7652
    -2.5606  -2.3526  -2.3188  -2.2926  -1.6047  -1.2337  -0.4472  -0.4139
    -0.3389  -0.0253   0.0522   0.1572   0.1887   0.3009   0.4078   0.4252
     0.4391   0.5062   0.5236   0.5538   0.6272   0.6587   1.1500   1.2438
     1.3048   1.4086   1.6488   1.6598   1.7379   1.7568   1.8049   1.9108
     2.0539   2.1803   2.1974   2.2369   2.3106   2.4121   2.4554   2.5173

     occupation numbers 
     1.0000   1.0000   1.0000   1.0000   1.0000   1.0000   1.0000   1.0000
     1.0000   1.0000   1.0000   1.0000   1.0000   1.0000   1.0000   1.0000
     1.0000   1.0000   1.0000   1.0000   1.0000   1.0000   1.0000   1.0000
     1.0000   1.0000   1.0000   1.0000   1.0000   1.0000   1.0000   1.0000
     1.0000   1.0000   1.0000   1.0000   1.0000   1.0000   1.0000   1.0000
     1.0000   1.0000   1.0000   1.0000   1.0000   1.0000   1.0000   1.0000
     1.0000   1.0000   1.0000   1.0000   1.0000   1.0000   1.0000   1.0000
     1.0000   1.0000   1.0000   1.0000   1.0000   1.0000   1.0000   1.0000
     1.0000   1.0000   1.0000   1.0000   0.0000   0.0000   0.0000   0.0000
     0.0000   0.0000   0.0000   0.0000   0.0000   0.0000   0.0000   0.0000
     0.0000   0.0000   0.0000   0.0000   0.0000   0.0000   0.0000   0.0000
     0.0000   0.0000   0.0000   0.0000   0.0000   0.0000   0.0000   0.0000
     0.0000   0.0000   0.0000   0.0000   0.0000   0.0000   0.0000   0.0000
     0.0000   0.0000   0.0000   0.0000   0.0000   0.0000   0.0000   0.0000
     0.0000   0.0000   0.0000   0.0000   0.0000   0.0000   0.0000   0.0000

          k = 0.4750 0.2742 0.0000 ( 59442 PWs)   bands (ev):

   -73.4619 -73.4616 -71.3727 -71.3723 -47.5877 -47.5864 -47.2962 -47.2957
   -46.9687 -46.9672 -45.3654 -45.3638 -45.0703 -45.0698 -44.8930 -44.8912
   -18.1116 -18.0711 -17.8933 -17.8772 -17.7664 -17.6980 -17.6903 -17.6175
   -17.5563 -17.5504 -17.5053 -17.3774 -11.6871 -11.5858 -11.4021 -11.2256
   -10.2150 -10.0951  -9.6721  -9.5568  -9.5155  -9.4770  -8.9511  -8.8697
    -8.7263  -8.5124  -8.4427  -8.3116  -8.2489  -8.1842  -8.0711  -8.0485
    -7.6505  -7.6007  -7.5501  -7.4785  -7.3556  -7.1929  -7.1631  -7.0732
    -6.9500  -6.8357  -6.7604  -6.7093  -6.6713  -6.5845  -6.3624  -6.1940
    -6.0922  -5.9978  -5.9444  -5.9195  -5.3610  -5.2111  -5.0235  -5.0031
    -4.9843  -4.9210  -4.1955  -4.1846  -3.9176  -3.8742  -3.8405  -3.7643
    -2.5615  -2.3453  -2.3223  -2.2932  -1.6117  -1.2411  -0.4579  -0.4098
    -0.3485  -0.0063   0.0516   0.1619   0.2031   0.3095   0.3876   0.4250
     0.4292   0.4969   0.5090   0.5565   0.6183   0.6517   1.1526   1.2418
     1.3039   1.4154   1.6467   1.6642   1.7408   1.7592   1.8015   1.9090
     2.0680   2.1617   2.1967   2.2480   2.2825   2.4291   2.4520   2.5097

     occupation numbers 
     1.0000   1.0000   1.0000   1.0000   1.0000   1.0000   1.0000   1.0000
     1.0000   1.0000   1.0000   1.0000   1.0000   1.0000   1.0000   1.0000
     1.0000   1.0000   1.0000   1.0000   1.0000   1.0000   1.0000   1.0000
     1.0000   1.0000   1.0000   1.0000   1.0000   1.0000   1.0000   1.0000
     1.0000   1.0000   1.0000   1.0000   1.0000   1.0000   1.0000   1.0000
     1.0000   1.0000   1.0000   1.0000   1.0000   1.0000   1.0000   1.0000
     1.0000   1.0000   1.0000   1.0000   1.0000   1.0000   1.0000   1.0000
     1.0000   1.0000   1.0000   1.0000   1.0000   1.0000   1.0000   1.0000
     1.0000   1.0000   1.0000   1.0000   0.0000   0.0000   0.0000   0.0000
     0.0000   0.0000   0.0000   0.0000   0.0000   0.0000   0.0000   0.0000
     0.0000   0.0000   0.0000   0.0000   0.0000   0.0000   0.0000   0.0000
     0.0000   0.0000   0.0000   0.0000   0.0000   0.0000   0.0000   0.0000
     0.0000   0.0000   0.0000   0.0000   0.0000   0.0000   0.0000   0.0000
     0.0000   0.0000   0.0000   0.0000   0.0000   0.0000   0.0000   0.0000
     0.0000   0.0000   0.0000   0.0000   0.0000   0.0000   0.0000   0.0000

          k = 0.4875 0.2815 0.0000 ( 59466 PWs)   bands (ev):

   -73.4619 -73.4616 -71.3727 -71.3723 -47.5877 -47.5864 -47.2962 -47.2957
   -46.9687 -46.9672 -45.3654 -45.3638 -45.0703 -45.0698 -44.8930 -44.8912
   -18.1066 -18.0649 -17.8984 -17.8836 -17.7646 -17.6997 -17.6907 -17.6132
   -17.5565 -17.5516 -17.5085 -17.3777 -11.6874 -11.5852 -11.4037 -11.2255
   -10.2152 -10.0954  -9.6701  -9.5563  -9.5153  -9.4774  -8.9462  -8.8652
    -8.7199  -8.4935  -8.4339  -8.3503  -8.2376  -8.1705  -8.0909  -8.0662
    -7.6510  -7.5948  -7.5560  -7.4783  -7.3519  -7.1878  -7.1575  -7.0763
    -6.9496  -6.8289  -6.7529  -6.7034  -6.6825  -6.5846  -6.3652  -6.1962
    -6.0898  -6.0022  -5.9435  -5.9211  -5.3619  -5.2124  -5.0227  -5.0025
    -4.9830  -4.9206  -4.1973  -4.1852  -3.9171  -3.8745  -3.8405  -3.7638
    -2.5620  -2.3391  -2.3261  -2.2936  -1.6160  -1.2455  -0.4649  -0.4078
    -0.3533   0.0058   0.0512   0.1634   0.2156   0.3152   0.3720   0.4233
     0.4249   0.4877   0.5033   0.5582   0.6128   0.6476   1.1539   1.2405
     1.3034   1.4195   1.6452   1.6676   1.7431   1.7617   1.7978   1.9072
     2.0858   2.1342   2.2111   2.2528   2.2602   2.4345   2.4566   2.5059

     occupation numbers 
     1.0000   1.0000   1.0000   1.0000   1.0000   1.0000   1.0000   1.0000
     1.0000   1.0000   1.0000   1.0000   1.0000   1.0000   1.0000   1.0000
     1.0000   1.0000   1.0000   1.0000   1.0000   1.0000   1.0000   1.0000
     1.0000   1.0000   1.0000   1.0000   1.0000   1.0000   1.0000   1.0000
     1.0000   1.0000   1.0000   1.0000   1.0000   1.0000   1.0000   1.0000
     1.0000   1.0000   1.0000   1.0000   1.0000   1.0000   1.0000   1.0000
     1.0000   1.0000   1.0000   1.0000   1.0000   1.0000   1.0000   1.0000
     1.0000   1.0000   1.0000   1.0000   1.0000   1.0000   1.0000   1.0000
     1.0000   1.0000   1.0000   1.0000   0.0000   0.0000   0.0000   0.0000
     0.0000   0.0000   0.0000   0.0000   0.0000   0.0000   0.0000   0.0000
     0.0000   0.0000   0.0000   0.0000   0.0000   0.0000   0.0000   0.0000
     0.0000   0.0000   0.0000   0.0000   0.0000   0.0000   0.0000   0.0000
     0.0000   0.0000   0.0000   0.0000   0.0000   0.0000   0.0000   0.0000
     0.0000   0.0000   0.0000   0.0000   0.0000   0.0000   0.0000   0.0000
     0.0000   0.0000   0.0000   0.0000   0.0000   0.0000   0.0000   0.0000

          k = 0.5000 0.2887 0.0000 ( 59450 PWs)   bands (ev):

   -73.4619 -73.4616 -71.3727 -71.3723 -47.5877 -47.5864 -47.2962 -47.2957
   -46.9687 -46.9672 -45.3654 -45.3638 -45.0703 -45.0698 -44.8930 -44.8912
   -18.1049 -18.0628 -17.9001 -17.8859 -17.7640 -17.7003 -17.6908 -17.6118
   -17.5565 -17.5520 -17.5096 -17.3778 -11.6875 -11.5850 -11.4042 -11.2255
   -10.2153 -10.0956  -9.6695  -9.5562  -9.5153  -9.4775  -8.9446  -8.8637
    -8.7176  -8.4901  -8.4166  -8.3753  -8.2328  -8.1640  -8.0991  -8.0730
    -7.6511  -7.5925  -7.5582  -7.4783  -7.3505  -7.1861  -7.1554  -7.0775
    -6.9494  -6.8267  -6.7501  -6.6992  -6.6888  -6.5846  -6.3661  -6.1970
    -6.0890  -6.0038  -5.9431  -5.9216  -5.3622  -5.2129  -5.0224  -5.0023
    -4.9826  -4.9204  -4.1978  -4.1854  -3.9169  -3.8746  -3.8405  -3.7636
    -2.5622  -2.3357  -2.3287  -2.2937  -1.6174  -1.2470  -0.4673  -0.4073
    -0.3546   0.0101   0.0510   0.1638   0.2206   0.3173   0.3661   0.4214
     0.4247   0.4841   0.5018   0.5588   0.6110   0.6462   1.1542   1.2400
     1.3032   1.4210   1.6446   1.6689   1.7441   1.7627   1.7961   1.9066
     2.1027   2.1139   2.2248   2.2383   2.2603   2.4347   2.4599   2.5049

     occupation numbers 
     1.0000   1.0000   1.0000   1.0000   1.0000   1.0000   1.0000   1.0000
     1.0000   1.0000   1.0000   1.0000   1.0000   1.0000   1.0000   1.0000
     1.0000   1.0000   1.0000   1.0000   1.0000   1.0000   1.0000   1.0000
     1.0000   1.0000   1.0000   1.0000   1.0000   1.0000   1.0000   1.0000
     1.0000   1.0000   1.0000   1.0000   1.0000   1.0000   1.0000   1.0000
     1.0000   1.0000   1.0000   1.0000   1.0000   1.0000   1.0000   1.0000
     1.0000   1.0000   1.0000   1.0000   1.0000   1.0000   1.0000   1.0000
     1.0000   1.0000   1.0000   1.0000   1.0000   1.0000   1.0000   1.0000
     1.0000   1.0000   1.0000   1.0000   0.0000   0.0000   0.0000   0.0000
     0.0000   0.0000   0.0000   0.0000   0.0000   0.0000   0.0000   0.0000
     0.0000   0.0000   0.0000   0.0000   0.0000   0.0000   0.0000   0.0000
     0.0000   0.0000   0.0000   0.0000   0.0000   0.0000   0.0000   0.0000
     0.0000   0.0000   0.0000   0.0000   0.0000   0.0000   0.0000   0.0000
     0.0000   0.0000   0.0000   0.0000   0.0000   0.0000   0.0000   0.0000
     0.0000   0.0000   0.0000   0.0000   0.0000   0.0000   0.0000   0.0000

          k = 0.4958 0.2959 0.0000 ( 59466 PWs)   bands (ev):

   -73.4619 -73.4616 -71.3727 -71.3723 -47.5877 -47.5864 -47.2962 -47.2957
   -46.9687 -46.9672 -45.3654 -45.3638 -45.0703 -45.0698 -44.8930 -44.8912
   -18.1048 -18.0627 -17.9001 -17.8858 -17.7640 -17.7003 -17.6909 -17.6117
   -17.5566 -17.5522 -17.5096 -17.3778 -11.6874 -11.5850 -11.4043 -11.2255
   -10.2151 -10.0952  -9.6696  -9.5560  -9.5150  -9.4773  -8.9447  -8.8638
    -8.7181  -8.4905  -8.4177  -8.3759  -8.2323  -8.1636  -8.0988  -8.0731
    -7.6526  -7.5920  -7.5571  -7.4781  -7.3503  -7.1862  -7.1555  -7.0773
    -6.9493  -6.8266  -6.7502  -6.7004  -6.6873  -6.5847  -6.3658  -6.1980
    -6.0890  -6.0029  -5.9430  -5.9211  -5.3621  -5.2129  -5.0235  -5.0014
    -4.9827  -4.9203  -4.1978  -4.1854  -3.9174  -3.8743  -3.8403  -3.7636
    -2.5619  -2.3357  -2.3286  -2.2937  -1.6172  -1.2469  -0.4672  -0.4086
    -0.3550   0.0072   0.0510   0.1643   0.2189   0.3158   0.3669   0.4184
     0.4281   0.4849   0.5032   0.5596   0.6084   0.6494   1.1531   1.2389
     1.3018   1.4189   1.6432   1.6675   1.7425   1.7614   1.7973   1.9085
     2.1025   2.1125   2.2234   2.2385   2.2628   2.4299   2.4595   2.4998

     occupation numbers 
     1.0000   1.0000   1.0000   1.0000   1.0000   1.0000   1.0000   1.0000
     1.0000   1.0000   1.0000   1.0000   1.0000   1.0000   1.0000   1.0000
     1.0000   1.0000   1.0000   1.0000   1.0000   1.0000   1.0000   1.0000
     1.0000   1.0000   1.0000   1.0000   1.0000   1.0000   1.0000   1.0000
     1.0000   1.0000   1.0000   1.0000   1.0000   1.0000   1.0000   1.0000
     1.0000   1.0000   1.0000   1.0000   1.0000   1.0000   1.0000   1.0000
     1.0000   1.0000   1.0000   1.0000   1.0000   1.0000   1.0000   1.0000
     1.0000   1.0000   1.0000   1.0000   1.0000   1.0000   1.0000   1.0000
     1.0000   1.0000   1.0000   1.0000   0.0000   0.0000   0.0000   0.0000
     0.0000   0.0000   0.0000   0.0000   0.0000   0.0000   0.0000   0.0000
     0.0000   0.0000   0.0000   0.0000   0.0000   0.0000   0.0000   0.0000
     0.0000   0.0000   0.0000   0.0000   0.0000   0.0000   0.0000   0.0000
     0.0000   0.0000   0.0000   0.0000   0.0000   0.0000   0.0000   0.0000
     0.0000   0.0000   0.0000   0.0000   0.0000   0.0000   0.0000   0.0000
     0.0000   0.0000   0.0000   0.0000   0.0000   0.0000   0.0000   0.0000

          k = 0.4917 0.3031 0.0000 ( 59444 PWs)   bands (ev):

   -73.4619 -73.4616 -71.3727 -71.3723 -47.5877 -47.5864 -47.2962 -47.2957
   -46.9687 -46.9672 -45.3654 -45.3638 -45.0703 -45.0698 -44.8930 -44.8912
   -18.1046 -18.0624 -17.9001 -17.8857 -17.7639 -17.7002 -17.6910 -17.6115
   -17.5570 -17.5526 -17.5097 -17.3779 -11.6873 -11.5849 -11.4045 -11.2256
   -10.2142 -10.0943  -9.6699  -9.5555  -9.5144  -9.4768  -8.9450  -8.8642
    -8.7194  -8.4914  -8.4211  -8.3775  -8.2311  -8.1624  -8.0981  -8.0736
    -7.6569  -7.5907  -7.5541  -7.4777  -7.3495  -7.1865  -7.1558  -7.0765
    -6.9487  -6.8264  -6.7507  -6.7030  -6.6840  -6.5848  -6.3648  -6.2011
    -6.0888  -6.0004  -5.9426  -5.9196  -5.3616  -5.2129  -5.0262  -4.9989
    -4.9829  -4.9201  -4.1977  -4.1856  -3.9188  -3.8738  -3.8398  -3.7636
    -2.5613  -2.3358  -2.3285  -2.2936  -1.6165  -1.2464  -0.4671  -0.4127
    -0.3560  -0.0011   0.0510   0.1655   0.2141   0.3114   0.3691   0.4138
     0.4339   0.4872   0.5072   0.5619   0.6025   0.6570   1.1499   1.2356
     1.2979   1.4130   1.6391   1.6636   1.7379   1.7576   1.8007   1.9140
     2.1020   2.1087   2.2194   2.2390   2.2703   2.4147   2.4593   2.4879

     occupation numbers 
     1.0000   1.0000   1.0000   1.0000   1.0000   1.0000   1.0000   1.0000
     1.0000   1.0000   1.0000   1.0000   1.0000   1.0000   1.0000   1.0000
     1.0000   1.0000   1.0000   1.0000   1.0000   1.0000   1.0000   1.0000
     1.0000   1.0000   1.0000   1.0000   1.0000   1.0000   1.0000   1.0000
     1.0000   1.0000   1.0000   1.0000   1.0000   1.0000   1.0000   1.0000
     1.0000   1.0000   1.0000   1.0000   1.0000   1.0000   1.0000   1.0000
     1.0000   1.0000   1.0000   1.0000   1.0000   1.0000   1.0000   1.0000
     1.0000   1.0000   1.0000   1.0000   1.0000   1.0000   1.0000   1.0000
     1.0000   1.0000   1.0000   1.0000   0.0000   0.0000   0.0000   0.0000
     0.0000   0.0000   0.0000   0.0000   0.0000   0.0000   0.0000   0.0000
     0.0000   0.0000   0.0000   0.0000   0.0000   0.0000   0.0000   0.0000
     0.0000   0.0000   0.0000   0.0000   0.0000   0.0000   0.0000   0.0000
     0.0000   0.0000   0.0000   0.0000   0.0000   0.0000   0.0000   0.0000
     0.0000   0.0000   0.0000   0.0000   0.0000   0.0000   0.0000   0.0000
     0.0000   0.0000   0.0000   0.0000   0.0000   0.0000   0.0000   0.0000

          k = 0.4875 0.3103 0.0000 ( 59460 PWs)   bands (ev):

   -73.4619 -73.4616 -71.3727 -71.3723 -47.5877 -47.5864 -47.2962 -47.2957
   -46.9687 -46.9672 -45.3654 -45.3638 -45.0703 -45.0698 -44.8930 -44.8912
   -18.1041 -18.0620 -17.9001 -17.8856 -17.7638 -17.7001 -17.6912 -17.6113
   -17.5575 -17.5534 -17.5098 -17.3780 -11.6872 -11.5848 -11.4049 -11.2259
   -10.2128 -10.0927  -9.6704  -9.5548  -9.5132  -9.4758  -8.9456  -8.8648
    -8.7217  -8.4930  -8.4266  -8.3803  -8.2292  -8.1603  -8.0969  -8.0742
    -7.6634  -7.5889  -7.5493  -7.4769  -7.3482  -7.1871  -7.1563  -7.0752
    -6.9479  -6.8262  -6.7517  -6.7054  -6.6801  -6.5850  -6.3632  -6.2060
    -6.0885  -5.9964  -5.9419  -5.9171  -5.3610  -5.2130  -5.0298  -4.9957
    -4.9833  -4.9197  -4.1975  -4.1857  -3.9210  -3.8729  -3.8389  -3.7636
    -2.5602  -2.3359  -2.3283  -2.2936  -1.6154  -1.2456  -0.4669  -0.4198
    -0.3570  -0.0142   0.0509   0.1669   0.2067   0.3044   0.3725   0.4085
     0.4414   0.4908   0.5134   0.5652   0.5960   0.6667   1.1446   1.2301
     1.2914   1.4034   1.6325   1.6571   1.7306   1.7517   1.8058   1.9227
     2.0996   2.1042   2.2125   2.2398   2.2827   2.3916   2.4499   2.4835

     occupation numbers 
     1.0000   1.0000   1.0000   1.0000   1.0000   1.0000   1.0000   1.0000
     1.0000   1.0000   1.0000   1.0000   1.0000   1.0000   1.0000   1.0000
     1.0000   1.0000   1.0000   1.0000   1.0000   1.0000   1.0000   1.0000
     1.0000   1.0000   1.0000   1.0000   1.0000   1.0000   1.0000   1.0000
     1.0000   1.0000   1.0000   1.0000   1.0000   1.0000   1.0000   1.0000
     1.0000   1.0000   1.0000   1.0000   1.0000   1.0000   1.0000   1.0000
     1.0000   1.0000   1.0000   1.0000   1.0000   1.0000   1.0000   1.0000
     1.0000   1.0000   1.0000   1.0000   1.0000   1.0000   1.0000   1.0000
     1.0000   1.0000   1.0000   1.0000   0.0000   0.0000   0.0000   0.0000
     0.0000   0.0000   0.0000   0.0000   0.0000   0.0000   0.0000   0.0000
     0.0000   0.0000   0.0000   0.0000   0.0000   0.0000   0.0000   0.0000
     0.0000   0.0000   0.0000   0.0000   0.0000   0.0000   0.0000   0.0000
     0.0000   0.0000   0.0000   0.0000   0.0000   0.0000   0.0000   0.0000
     0.0000   0.0000   0.0000   0.0000   0.0000   0.0000   0.0000   0.0000
     0.0000   0.0000   0.0000   0.0000   0.0000   0.0000   0.0000   0.0000

          k = 0.4833 0.3175 0.0000 ( 59440 PWs)   bands (ev):

   -73.4619 -73.4616 -71.3727 -71.3723 -47.5877 -47.5864 -47.2962 -47.2957
   -46.9687 -46.9672 -45.3654 -45.3638 -45.0703 -45.0698 -44.8930 -44.8912
   -18.1035 -18.0613 -17.9001 -17.8854 -17.7636 -17.7000 -17.6916 -17.6109
   -17.5583 -17.5545 -17.5100 -17.3782 -11.6870 -11.5846 -11.4055 -11.2262
   -10.2108 -10.0905  -9.6712  -9.5539  -9.5115  -9.4744  -8.9464  -8.8656
    -8.7248  -8.4952  -8.4338  -8.3841  -8.2271  -8.1573  -8.0954  -8.0751
    -7.6713  -7.5869  -7.5433  -7.4759  -7.3464  -7.1878  -7.1569  -7.0734
    -6.9466  -6.8258  -6.7534  -6.7071  -6.6761  -6.5851  -6.3612  -6.2125
    -6.0879  -5.9914  -5.9410  -5.9135  -5.3600  -5.2131  -5.0340  -4.9922
    -4.9839  -4.9192  -4.1972  -4.1860  -3.9239  -3.8718  -3.8377  -3.7635
    -2.5587  -2.3361  -2.3280  -2.2934  -1.6139  -1.2445  -0.4670  -0.4298
    -0.3576  -0.0312   0.0504   0.1674   0.1975   0.2953   0.3767   0.4025
     0.4505   0.4955   0.5214   0.5678   0.5912   0.6777   1.1374   1.2225
     1.2826   1.3905   1.6236   1.6483   1.7210   1.7442   1.8122   1.9338
     2.0922   2.1030   2.2033   2.2408   2.2994   2.3643   2.4268   2.4930

     occupation numbers 
     1.0000   1.0000   1.0000   1.0000   1.0000   1.0000   1.0000   1.0000
     1.0000   1.0000   1.0000   1.0000   1.0000   1.0000   1.0000   1.0000
     1.0000   1.0000   1.0000   1.0000   1.0000   1.0000   1.0000   1.0000
     1.0000   1.0000   1.0000   1.0000   1.0000   1.0000   1.0000   1.0000
     1.0000   1.0000   1.0000   1.0000   1.0000   1.0000   1.0000   1.0000
     1.0000   1.0000   1.0000   1.0000   1.0000   1.0000   1.0000   1.0000
     1.0000   1.0000   1.0000   1.0000   1.0000   1.0000   1.0000   1.0000
     1.0000   1.0000   1.0000   1.0000   1.0000   1.0000   1.0000   1.0000
     1.0000   1.0000   1.0000   1.0000   0.0000   0.0000   0.0000   0.0000
     0.0000   0.0000   0.0000   0.0000   0.0000   0.0000   0.0000   0.0000
     0.0000   0.0000   0.0000   0.0000   0.0000   0.0000   0.0000   0.0000
     0.0000   0.0000   0.0000   0.0000   0.0000   0.0000   0.0000   0.0000
     0.0000   0.0000   0.0000   0.0000   0.0000   0.0000   0.0000   0.0000
     0.0000   0.0000   0.0000   0.0000   0.0000   0.0000   0.0000   0.0000
     0.0000   0.0000   0.0000   0.0000   0.0000   0.0000   0.0000   0.0000

          k = 0.4792 0.3248 0.0000 ( 59446 PWs)   bands (ev):

   -73.4619 -73.4616 -71.3727 -71.3723 -47.5877 -47.5864 -47.2962 -47.2957
   -46.9687 -46.9672 -45.3654 -45.3638 -45.0703 -45.0698 -44.8930 -44.8912
   -18.1026 -18.0605 -17.9001 -17.8851 -17.7633 -17.6999 -17.6920 -17.6104
   -17.5593 -17.5559 -17.5102 -17.3784 -11.6867 -11.5844 -11.4062 -11.2266
   -10.2083 -10.0877  -9.6722  -9.5529  -9.5091  -9.4725  -8.9474  -8.8667
    -8.7288  -8.4979  -8.4425  -8.3889  -8.2251  -8.1532  -8.0939  -8.0759
    -7.6801  -7.5849  -7.5364  -7.4746  -7.3441  -7.1887  -7.1576  -7.0714
    -6.9450  -6.8253  -6.7558  -6.7078  -6.6720  -6.5852  -6.3588  -6.2202
    -6.0870  -5.9858  -5.9397  -5.9089  -5.3587  -5.2132  -5.0385  -4.9886
    -4.9845  -4.9186  -4.1969  -4.1863  -3.9273  -3.8706  -3.8362  -3.7635
    -2.5568  -2.3363  -2.3276  -2.2933  -1.6119  -1.2431  -0.4684  -0.4418
    -0.3577  -0.0516   0.0495   0.1657   0.1880   0.2845   0.3815   0.3963
     0.4610   0.5011   0.5305   0.5672   0.5912   0.6893   1.1284   1.2129
     1.2717   1.3750   1.6130   1.6374   1.7092   1.7355   1.8195   1.9466
     2.0824   2.1030   2.1919   2.2419   2.3155   2.3393   2.3991   2.5090

     occupation numbers 
     1.0000   1.0000   1.0000   1.0000   1.0000   1.0000   1.0000   1.0000
     1.0000   1.0000   1.0000   1.0000   1.0000   1.0000   1.0000   1.0000
     1.0000   1.0000   1.0000   1.0000   1.0000   1.0000   1.0000   1.0000
     1.0000   1.0000   1.0000   1.0000   1.0000   1.0000   1.0000   1.0000
     1.0000   1.0000   1.0000   1.0000   1.0000   1.0000   1.0000   1.0000
     1.0000   1.0000   1.0000   1.0000   1.0000   1.0000   1.0000   1.0000
     1.0000   1.0000   1.0000   1.0000   1.0000   1.0000   1.0000   1.0000
     1.0000   1.0000   1.0000   1.0000   1.0000   1.0000   1.0000   1.0000
     1.0000   1.0000   1.0000   1.0000   0.0000   0.0000   0.0000   0.0000
     0.0000   0.0000   0.0000   0.0000   0.0000   0.0000   0.0000   0.0000
     0.0000   0.0000   0.0000   0.0000   0.0000   0.0000   0.0000   0.0000
     0.0000   0.0000   0.0000   0.0000   0.0000   0.0000   0.0000   0.0000
     0.0000   0.0000   0.0000   0.0000   0.0000   0.0000   0.0000   0.0000
     0.0000   0.0000   0.0000   0.0000   0.0000   0.0000   0.0000   0.0000
     0.0000   0.0000   0.0000   0.0000   0.0000   0.0000   0.0000   0.0000

          k = 0.4750 0.3320 0.0000 ( 59432 PWs)   bands (ev):

   -73.4619 -73.4616 -71.3727 -71.3723 -47.5877 -47.5864 -47.2962 -47.2957
   -46.9687 -46.9672 -45.3654 -45.3638 -45.0703 -45.0698 -44.8930 -44.8912
   -18.1016 -18.0595 -17.9002 -17.8848 -17.7630 -17.6997 -17.6925 -17.6098
   -17.5606 -17.5576 -17.5104 -17.3788 -11.6863 -11.5841 -11.4070 -11.2270
   -10.2052 -10.0842  -9.6734  -9.5520  -9.5060  -9.4702  -8.9487  -8.8680
    -8.7336  -8.5012  -8.4524  -8.3945  -8.2235  -8.1483  -8.0924  -8.0767
    -7.6897  -7.5828  -7.5290  -7.4730  -7.3412  -7.1896  -7.1582  -7.0691
    -6.9431  -6.8248  -6.7590  -6.7075  -6.6680  -6.5851  -6.3562  -6.2290
    -6.0858  -5.9798  -5.9380  -5.9032  -5.3572  -5.2133  -5.0433  -4.9861
    -4.9840  -4.9179  -4.1965  -4.1867  -3.9312  -3.8694  -3.8344  -3.7634
    -2.5544  -2.3366  -2.3272  -2.2931  -1.6095  -1.2413  -0.4748  -0.4517
    -0.3570  -0.0746   0.0481   0.1593   0.1806   0.2721   0.3861   0.3904
     0.4724   0.5075   0.5403   0.5630   0.5963   0.7014   1.1179   1.2016
     1.2589   1.3572   1.6011   1.6247   1.6954   1.7260   1.8273   1.9601
     2.0716   2.1035   2.1789   2.2432   2.2975   2.3490   2.3714   2.5291

     occupation numbers 
     1.0000   1.0000   1.0000   1.0000   1.0000   1.0000   1.0000   1.0000
     1.0000   1.0000   1.0000   1.0000   1.0000   1.0000   1.0000   1.0000
     1.0000   1.0000   1.0000   1.0000   1.0000   1.0000   1.0000   1.0000
     1.0000   1.0000   1.0000   1.0000   1.0000   1.0000   1.0000   1.0000
     1.0000   1.0000   1.0000   1.0000   1.0000   1.0000   1.0000   1.0000
     1.0000   1.0000   1.0000   1.0000   1.0000   1.0000   1.0000   1.0000
     1.0000   1.0000   1.0000   1.0000   1.0000   1.0000   1.0000   1.0000
     1.0000   1.0000   1.0000   1.0000   1.0000   1.0000   1.0000   1.0000
     1.0000   1.0000   1.0000   1.0000   0.0000   0.0000   0.0000   0.0000
     0.0000   0.0000   0.0000   0.0000   0.0000   0.0000   0.0000   0.0000
     0.0000   0.0000   0.0000   0.0000   0.0000   0.0000   0.0000   0.0000
     0.0000   0.0000   0.0000   0.0000   0.0000   0.0000   0.0000   0.0000
     0.0000   0.0000   0.0000   0.0000   0.0000   0.0000   0.0000   0.0000
     0.0000   0.0000   0.0000   0.0000   0.0000   0.0000   0.0000   0.0000
     0.0000   0.0000   0.0000   0.0000   0.0000   0.0000   0.0000   0.0000

          k = 0.4708 0.3392 0.0000 ( 59424 PWs)   bands (ev):

   -73.4619 -73.4616 -71.3727 -71.3723 -47.5877 -47.5864 -47.2962 -47.2957
   -46.9687 -46.9672 -45.3654 -45.3638 -45.0703 -45.0698 -44.8930 -44.8912
   -18.1005 -18.0583 -17.9002 -17.8844 -17.7627 -17.6995 -17.6931 -17.6092
   -17.5620 -17.5596 -17.5106 -17.3792 -11.6859 -11.5837 -11.4081 -11.2276
   -10.2015 -10.0802  -9.6749  -9.5514  -9.5022  -9.4673  -8.9502  -8.8696
    -8.7391  -8.5048  -8.4632  -8.4008  -8.2224  -8.1428  -8.0912  -8.0772
    -7.6996  -7.5808  -7.5214  -7.4711  -7.3379  -7.1904  -7.1588  -7.0666
    -6.9408  -6.8243  -6.7627  -6.7063  -6.6640  -6.5848  -6.3536  -6.2386
    -6.0841  -5.9739  -5.9359  -5.8966  -5.3554  -5.2134  -5.0481  -4.9867
    -4.9807  -4.9171  -4.1960  -4.1871  -3.9355  -3.8683  -3.8324  -3.7633
    -2.5517  -2.3368  -2.3268  -2.2930  -1.6066  -1.2392  -0.4902  -0.4551
    -0.3557  -0.0997   0.0458   0.1476   0.1762   0.2586   0.3826   0.3929
     0.4846   0.5142   0.5483   0.5597   0.6041   0.7138   1.1062   1.1885
     1.2445   1.3377   1.5881   1.6103   1.6800   1.7162   1.8354   1.9733
     2.0606   2.1043   2.1644   2.2446   2.2661   2.3365   2.3815   2.5527

     occupation numbers 
     1.0000   1.0000   1.0000   1.0000   1.0000   1.0000   1.0000   1.0000
     1.0000   1.0000   1.0000   1.0000   1.0000   1.0000   1.0000   1.0000
     1.0000   1.0000   1.0000   1.0000   1.0000   1.0000   1.0000   1.0000
     1.0000   1.0000   1.0000   1.0000   1.0000   1.0000   1.0000   1.0000
     1.0000   1.0000   1.0000   1.0000   1.0000   1.0000   1.0000   1.0000
     1.0000   1.0000   1.0000   1.0000   1.0000   1.0000   1.0000   1.0000
     1.0000   1.0000   1.0000   1.0000   1.0000   1.0000   1.0000   1.0000
     1.0000   1.0000   1.0000   1.0000   1.0000   1.0000   1.0000   1.0000
     1.0000   1.0000   1.0000   1.0000   0.0000   0.0000   0.0000   0.0000
     0.0000   0.0000   0.0000   0.0000   0.0000   0.0000   0.0000   0.0000
     0.0000   0.0000   0.0000   0.0000   0.0000   0.0000   0.0000   0.0000
     0.0000   0.0000   0.0000   0.0000   0.0000   0.0000   0.0000   0.0000
     0.0000   0.0000   0.0000   0.0000   0.0000   0.0000   0.0000   0.0000
     0.0000   0.0000   0.0000   0.0000   0.0000   0.0000   0.0000   0.0000
     0.0000   0.0000   0.0000   0.0000   0.0000   0.0000   0.0000   0.0000

          k = 0.4667 0.3464 0.0000 ( 59416 PWs)   bands (ev):

   -73.4619 -73.4616 -71.3727 -71.3723 -47.5877 -47.5864 -47.2962 -47.2957
   -46.9687 -46.9672 -45.3654 -45.3639 -45.0703 -45.0698 -44.8930 -44.8912
   -18.0991 -18.0569 -17.9002 -17.8840 -17.7623 -17.6993 -17.6937 -17.6084
   -17.5637 -17.5620 -17.5107 -17.3796 -11.6855 -11.5833 -11.4092 -11.2282
   -10.1973 -10.0755  -9.6766  -9.5511  -9.4975  -9.4638  -8.9520  -8.8715
    -8.7453  -8.5090  -8.4749  -8.4078  -8.2217  -8.1371  -8.0901  -8.0772
    -7.7097  -7.5789  -7.5138  -7.4690  -7.3340  -7.1912  -7.1592  -7.0640
    -6.9382  -6.8238  -6.7667  -6.7044  -6.6601  -6.5841  -6.3511  -6.2486
    -6.0821  -5.9681  -5.9334  -5.8890  -5.3534  -5.2136  -5.0531  -4.9877
    -4.9770  -4.9161  -4.1955  -4.1876  -3.9401  -3.8673  -3.8302  -3.7633
    -2.5485  -2.3370  -2.3264  -2.2928  -1.6033  -1.2368  -0.5112  -0.4552
    -0.3538  -0.1266   0.0428   0.1330   0.1726   0.2439   0.3763   0.3984
     0.4973   0.5212   0.5467   0.5664   0.6132   0.7266   1.0935   1.1741
     1.2288   1.3170   1.5744   1.5947   1.6631   1.7063   1.8436   1.9846
     2.0507   2.1055   2.1486   2.2338   2.2458   2.3072   2.4128   2.5794

     occupation numbers 
     1.0000   1.0000   1.0000   1.0000   1.0000   1.0000   1.0000   1.0000
     1.0000   1.0000   1.0000   1.0000   1.0000   1.0000   1.0000   1.0000
     1.0000   1.0000   1.0000   1.0000   1.0000   1.0000   1.0000   1.0000
     1.0000   1.0000   1.0000   1.0000   1.0000   1.0000   1.0000   1.0000
     1.0000   1.0000   1.0000   1.0000   1.0000   1.0000   1.0000   1.0000
     1.0000   1.0000   1.0000   1.0000   1.0000   1.0000   1.0000   1.0000
     1.0000   1.0000   1.0000   1.0000   1.0000   1.0000   1.0000   1.0000
     1.0000   1.0000   1.0000   1.0000   1.0000   1.0000   1.0000   1.0000
     1.0000   1.0000   1.0000   1.0000   0.0000   0.0000   0.0000   0.0000
     0.0000   0.0000   0.0000   0.0000   0.0000   0.0000   0.0000   0.0000
     0.0000   0.0000   0.0000   0.0000   0.0000   0.0000   0.0000   0.0000
     0.0000   0.0000   0.0000   0.0000   0.0000   0.0000   0.0000   0.0000
     0.0000   0.0000   0.0000   0.0000   0.0000   0.0000   0.0000   0.0000
     0.0000   0.0000   0.0000   0.0000   0.0000   0.0000   0.0000   0.0000
     0.0000   0.0000   0.0000   0.0000   0.0000   0.0000   0.0000   0.0000

          k = 0.4625 0.3536 0.0000 ( 59412 PWs)   bands (ev):

   -73.4619 -73.4616 -71.3727 -71.3723 -47.5877 -47.5864 -47.2962 -47.2957
   -46.9687 -46.9672 -45.3654 -45.3639 -45.0703 -45.0698 -44.8929 -44.8913
   -18.0975 -18.0554 -17.9003 -17.8835 -17.7619 -17.6990 -17.6944 -17.6075
   -17.5657 -17.5646 -17.5109 -17.3801 -11.6850 -11.5829 -11.4106 -11.2289
   -10.1925 -10.0702  -9.6786  -9.5512  -9.4919  -9.4598  -8.9540  -8.8736
    -8.7522  -8.5136  -8.4870  -8.4152  -8.2216  -8.1320  -8.0887  -8.0769
    -7.7200  -7.5771  -7.5063  -7.4665  -7.3297  -7.1917  -7.1596  -7.0615
    -6.9352  -6.8235  -6.7707  -6.7019  -6.6561  -6.5831  -6.3490  -6.2589
    -6.0797  -5.9627  -5.9303  -5.8807  -5.3510  -5.2138  -5.0583  -4.9888
    -4.9734  -4.9151  -4.1949  -4.1881  -3.9450  -3.8663  -3.8278  -3.7632
    -2.5450  -2.3372  -2.3259  -2.2926  -1.5996  -1.2340  -0.5351  -0.4541
    -0.3514  -0.1550   0.0388   0.1170   0.1685   0.2284   0.3700   0.4039
     0.5102   0.5277   0.5415   0.5778   0.6231   0.7396   1.0802   1.1584
     1.2119   1.2953   1.5604   1.5781   1.6452   1.6964   1.8516   1.9911
     2.0444   2.1070   2.1316   2.2018   2.2461   2.2791   2.4478   2.6088

     occupation numbers 
     1.0000   1.0000   1.0000   1.0000   1.0000   1.0000   1.0000   1.0000
     1.0000   1.0000   1.0000   1.0000   1.0000   1.0000   1.0000   1.0000
     1.0000   1.0000   1.0000   1.0000   1.0000   1.0000   1.0000   1.0000
     1.0000   1.0000   1.0000   1.0000   1.0000   1.0000   1.0000   1.0000
     1.0000   1.0000   1.0000   1.0000   1.0000   1.0000   1.0000   1.0000
     1.0000   1.0000   1.0000   1.0000   1.0000   1.0000   1.0000   1.0000
     1.0000   1.0000   1.0000   1.0000   1.0000   1.0000   1.0000   1.0000
     1.0000   1.0000   1.0000   1.0000   1.0000   1.0000   1.0000   1.0000
     1.0000   1.0000   1.0000   1.0000   0.0000   0.0000   0.0000   0.0000
     0.0000   0.0000   0.0000   0.0000   0.0000   0.0000   0.0000   0.0000
     0.0000   0.0000   0.0000   0.0000   0.0000   0.0000   0.0000   0.0000
     0.0000   0.0000   0.0000   0.0000   0.0000   0.0000   0.0000   0.0000
     0.0000   0.0000   0.0000   0.0000   0.0000   0.0000   0.0000   0.0000
     0.0000   0.0000   0.0000   0.0000   0.0000   0.0000   0.0000   0.0000
     0.0000   0.0000   0.0000   0.0000   0.0000   0.0000   0.0000   0.0000

          k = 0.4583 0.3608 0.0000 ( 59434 PWs)   bands (ev):

   -73.4619 -73.4616 -71.3727 -71.3723 -47.5877 -47.5864 -47.2962 -47.2957
   -46.9686 -46.9672 -45.3653 -45.3639 -45.0703 -45.0698 -44.8929 -44.8913
   -18.0958 -18.0536 -17.9004 -17.8830 -17.7614 -17.6988 -17.6951 -17.6065
   -17.5682 -17.5671 -17.5110 -17.3808 -11.6844 -11.5823 -11.4121 -11.2297
   -10.1872 -10.0643  -9.6808  -9.5518  -9.4855  -9.4551  -8.9562  -8.8760
    -8.7598  -8.5189  -8.4992  -8.4230  -8.2219  -8.1284  -8.0864  -8.0763
    -7.7304  -7.5756  -7.4991  -7.4636  -7.3249  -7.1918  -7.1597  -7.0590
    -6.9319  -6.8235  -6.7742  -6.6992  -6.6522  -6.5817  -6.3476  -6.2691
    -6.0770  -5.9576  -5.9266  -5.8717  -5.3484  -5.2140  -5.0635  -4.9900
    -4.9699  -4.9141  -4.1943  -4.1886  -3.9500  -3.8654  -3.8253  -3.7630
    -2.5410  -2.3374  -2.3254  -2.2924  -1.5955  -1.2309  -0.5612  -0.4525
    -0.3487  -0.1845   0.0339   0.1001   0.1636   0.2122   0.3638   0.4091
     0.5229   0.5304   0.5399   0.5900   0.6334   0.7526   1.0664   1.1418
     1.1943   1.2732   1.5460   1.5610   1.6264   1.6866   1.8593   1.9891
     2.0443   2.1077   2.1146   2.1709   2.2399   2.2589   2.4855   2.6401

     occupation numbers 
     1.0000   1.0000   1.0000   1.0000   1.0000   1.0000   1.0000   1.0000
     1.0000   1.0000   1.0000   1.0000   1.0000   1.0000   1.0000   1.0000
     1.0000   1.0000   1.0000   1.0000   1.0000   1.0000   1.0000   1.0000
     1.0000   1.0000   1.0000   1.0000   1.0000   1.0000   1.0000   1.0000
     1.0000   1.0000   1.0000   1.0000   1.0000   1.0000   1.0000   1.0000
     1.0000   1.0000   1.0000   1.0000   1.0000   1.0000   1.0000   1.0000
     1.0000   1.0000   1.0000   1.0000   1.0000   1.0000   1.0000   1.0000
     1.0000   1.0000   1.0000   1.0000   1.0000   1.0000   1.0000   1.0000
     1.0000   1.0000   1.0000   1.0000   0.0000   0.0000   0.0000   0.0000
     0.0000   0.0000   0.0000   0.0000   0.0000   0.0000   0.0000   0.0000
     0.0000   0.0000   0.0000   0.0000   0.0000   0.0000   0.0000   0.0000
     0.0000   0.0000   0.0000   0.0000   0.0000   0.0000   0.0000   0.0000
     0.0000   0.0000   0.0000   0.0000   0.0000   0.0000   0.0000   0.0000
     0.0000   0.0000   0.0000   0.0000   0.0000   0.0000   0.0000   0.0000
     0.0000   0.0000   0.0000   0.0000   0.0000   0.0000   0.0000   0.0000

          k = 0.4542 0.3681 0.0000 ( 59448 PWs)   bands (ev):

   -73.4619 -73.4616 -71.3727 -71.3723 -47.5877 -47.5865 -47.2962 -47.2957
   -46.9686 -46.9673 -45.3653 -45.3639 -45.0703 -45.0698 -44.8929 -44.8913
   -18.0939 -18.0517 -17.9005 -17.8825 -17.7609 -17.6986 -17.6958 -17.6054
   -17.5714 -17.5695 -17.5111 -17.3815 -11.6839 -11.5817 -11.4137 -11.2305
   -10.1813 -10.0579  -9.6833  -9.5528  -9.4783  -9.4498  -8.9587  -8.8787
    -8.7678  -8.5256  -8.5106  -8.4310  -8.2226  -8.1268  -8.0827  -8.0755
    -7.7407  -7.5745  -7.4922  -7.4603  -7.3196  -7.1916  -7.1597  -7.0565
    -6.9283  -6.8239  -6.7771  -6.6963  -6.6484  -6.5797  -6.3470  -6.2791
    -6.0739  -5.9530  -5.9223  -5.8623  -5.3456  -5.2142  -5.0687  -4.9913
    -4.9664  -4.9129  -4.1936  -4.1891  -3.9553  -3.8646  -3.8227  -3.7629
    -2.5367  -2.3376  -2.3249  -2.2922  -1.5909  -1.2274  -0.5887  -0.4506
    -0.3456  -0.2148   0.0280   0.0825   0.1577   0.1954   0.3579   0.4138
     0.5257   0.5354   0.5459   0.6027   0.6441   0.7657   1.0526   1.1245
     1.1761   1.2509   1.5312   1.5438   1.6069   1.6771   1.8666   1.9792
     2.0476   2.0939   2.1120   2.1424   2.2191   2.2554   2.5255   2.6691

     occupation numbers 
     1.0000   1.0000   1.0000   1.0000   1.0000   1.0000   1.0000   1.0000
     1.0000   1.0000   1.0000   1.0000   1.0000   1.0000   1.0000   1.0000
     1.0000   1.0000   1.0000   1.0000   1.0000   1.0000   1.0000   1.0000
     1.0000   1.0000   1.0000   1.0000   1.0000   1.0000   1.0000   1.0000
     1.0000   1.0000   1.0000   1.0000   1.0000   1.0000   1.0000   1.0000
     1.0000   1.0000   1.0000   1.0000   1.0000   1.0000   1.0000   1.0000
     1.0000   1.0000   1.0000   1.0000   1.0000   1.0000   1.0000   1.0000
     1.0000   1.0000   1.0000   1.0000   1.0000   1.0000   1.0000   1.0000
     1.0000   1.0000   1.0000   1.0000   0.0000   0.0000   0.0000   0.0000
     0.0000   0.0000   0.0000   0.0000   0.0000   0.0000   0.0000   0.0000
     0.0000   0.0000   0.0000   0.0000   0.0000   0.0000   0.0000   0.0000
     0.0000   0.0000   0.0000   0.0000   0.0000   0.0000   0.0000   0.0000
     0.0000   0.0000   0.0000   0.0000   0.0000   0.0000   0.0000   0.0000
     0.0000   0.0000   0.0000   0.0000   0.0000   0.0000   0.0000   0.0000
     0.0000   0.0000   0.0000   0.0000   0.0000   0.0000   0.0000   0.0000

          k = 0.4500 0.3753 0.0000 ( 59446 PWs)   bands (ev):

   -73.4619 -73.4616 -71.3727 -71.3723 -47.5877 -47.5865 -47.2962 -47.2957
   -46.9686 -46.9673 -45.3653 -45.3639 -45.0703 -45.0698 -44.8929 -44.8913
   -18.0919 -18.0496 -17.9006 -17.8819 -17.7605 -17.6986 -17.6964 -17.6042
   -17.5750 -17.5720 -17.5111 -17.3823 -11.6832 -11.5810 -11.4155 -11.2314
   -10.1749 -10.0508  -9.6861  -9.5544  -9.4704  -9.4438  -8.9615  -8.8817
    -8.7763  -8.5350  -8.5197  -8.4392  -8.2236  -8.1274  -8.0785  -8.0736
    -7.7510  -7.5737  -7.4856  -7.4567  -7.3140  -7.1909  -7.1596  -7.0543
    -6.9243  -6.8248  -6.7789  -6.6934  -6.6445  -6.5773  -6.3478  -6.2883
    -6.0706  -5.9487  -5.9174  -5.8525  -5.3425  -5.2144  -5.0741  -4.9926
    -4.9630  -4.9118  -4.1930  -4.1896  -3.9607  -3.8639  -3.8201  -3.7627
    -2.5321  -2.3377  -2.3244  -2.2921  -1.5860  -1.2235  -0.6174  -0.4486
    -0.3424  -0.2458   0.0212   0.0646   0.1509   0.1781   0.3523   0.4179
     0.5201   0.5450   0.5554   0.6155   0.6549   0.7787   1.0388   1.1069
     1.1577   1.2288   1.5153   1.5275   1.5870   1.6679   1.8733   1.9645
     2.0454   2.0787   2.1120   2.1210   2.1966   2.2561   2.5674   2.6701

     occupation numbers 
     1.0000   1.0000   1.0000   1.0000   1.0000   1.0000   1.0000   1.0000
     1.0000   1.0000   1.0000   1.0000   1.0000   1.0000   1.0000   1.0000
     1.0000   1.0000   1.0000   1.0000   1.0000   1.0000   1.0000   1.0000
     1.0000   1.0000   1.0000   1.0000   1.0000   1.0000   1.0000   1.0000
     1.0000   1.0000   1.0000   1.0000   1.0000   1.0000   1.0000   1.0000
     1.0000   1.0000   1.0000   1.0000   1.0000   1.0000   1.0000   1.0000
     1.0000   1.0000   1.0000   1.0000   1.0000   1.0000   1.0000   1.0000
     1.0000   1.0000   1.0000   1.0000   1.0000   1.0000   1.0000   1.0000
     1.0000   1.0000   1.0000   1.0000   0.0000   0.0000   0.0000   0.0000
     0.0000   0.0000   0.0000   0.0000   0.0000   0.0000   0.0000   0.0000
     0.0000   0.0000   0.0000   0.0000   0.0000   0.0000   0.0000   0.0000
     0.0000   0.0000   0.0000   0.0000   0.0000   0.0000   0.0000   0.0000
     0.0000   0.0000   0.0000   0.0000   0.0000   0.0000   0.0000   0.0000
     0.0000   0.0000   0.0000   0.0000   0.0000   0.0000   0.0000   0.0000
     0.0000   0.0000   0.0000   0.0000   0.0000   0.0000   0.0000   0.0000

          k = 0.4458 0.3825 0.0000 ( 59432 PWs)   bands (ev):

   -73.4619 -73.4616 -71.3727 -71.3723 -47.5877 -47.5865 -47.2962 -47.2957
   -46.9686 -46.9673 -45.3653 -45.3639 -45.0703 -45.0698 -44.8929 -44.8913
   -18.0896 -18.0474 -17.9008 -17.8813 -17.7600 -17.6989 -17.6965 -17.6029
   -17.5790 -17.5746 -17.5111 -17.3831 -11.6826 -11.5803 -11.4175 -11.2323
   -10.1680 -10.0432  -9.6892  -9.5564  -9.4618  -9.4371  -8.9646  -8.8850
    -8.7852  -8.5473  -8.5264  -8.4474  -8.2250  -8.1297  -8.0770  -8.0683
    -7.7611  -7.5735  -7.4794  -7.4526  -7.3081  -7.1898  -7.1592  -7.0521
    -6.9201  -6.8264  -6.7796  -6.6906  -6.6407  -6.5744  -6.3503  -6.2963
    -6.0669  -5.9446  -5.9120  -5.8426  -5.3391  -5.2146  -5.0795  -4.9939
    -4.9597  -4.9106  -4.1926  -4.1898  -3.9662  -3.8632  -3.8175  -3.7626
    -2.5270  -2.3379  -2.3239  -2.2920  -1.5806  -1.2193  -0.6470  -0.4465
    -0.3392  -0.2770   0.0135   0.0464   0.1431   0.1604   0.3469   0.4212
     0.5145   0.5517   0.5675   0.6284   0.6658   0.7915   1.0254   1.0893
     1.1395   1.2071   1.4979   1.5129   1.5669   1.6590   1.8789   1.9465
     2.0293   2.0668   2.1029   2.1202   2.1766   2.2574   2.6101   2.6538

     occupation numbers 
     1.0000   1.0000   1.0000   1.0000   1.0000   1.0000   1.0000   1.0000
     1.0000   1.0000   1.0000   1.0000   1.0000   1.0000   1.0000   1.0000
     1.0000   1.0000   1.0000   1.0000   1.0000   1.0000   1.0000   1.0000
     1.0000   1.0000   1.0000   1.0000   1.0000   1.0000   1.0000   1.0000
     1.0000   1.0000   1.0000   1.0000   1.0000   1.0000   1.0000   1.0000
     1.0000   1.0000   1.0000   1.0000   1.0000   1.0000   1.0000   1.0000
     1.0000   1.0000   1.0000   1.0000   1.0000   1.0000   1.0000   1.0000
     1.0000   1.0000   1.0000   1.0000   1.0000   1.0000   1.0000   1.0000
     1.0000   1.0000   1.0000   1.0000   0.0000   0.0000   0.0000   0.0000
     0.0000   0.0000   0.0000   0.0000   0.0000   0.0000   0.0000   0.0000
     0.0000   0.0000   0.0000   0.0000   0.0000   0.0000   0.0000   0.0000
     0.0000   0.0000   0.0000   0.0000   0.0000   0.0000   0.0000   0.0000
     0.0000   0.0000   0.0000   0.0000   0.0000   0.0000   0.0000   0.0000
     0.0000   0.0000   0.0000   0.0000   0.0000   0.0000   0.0000   0.0000
     0.0000   0.0000   0.0000   0.0000   0.0000   0.0000   0.0000   0.0000

          k = 0.4417 0.3897 0.0000 ( 59432 PWs)   bands (ev):

   -73.4619 -73.4616 -71.3727 -71.3723 -47.5876 -47.5865 -47.2962 -47.2957
   -46.9686 -46.9673 -45.3653 -45.3639 -45.0703 -45.0698 -44.8929 -44.8913
   -18.0872 -18.0449 -17.9011 -17.8807 -17.7595 -17.6995 -17.6964 -17.6015
   -17.5832 -17.5773 -17.5111 -17.3841 -11.6819 -11.5794 -11.4196 -11.2333
   -10.1605 -10.0351  -9.6926  -9.5588  -9.4527  -9.4296  -8.9679  -8.8886
    -8.7944  -8.5611  -8.5318  -8.4555  -8.2266  -8.1332  -8.0772  -8.0610
    -7.7710  -7.5739  -7.4734  -7.4482  -7.3020  -7.1883  -7.1585  -7.0502
    -6.9156  -6.8284  -6.7792  -6.6879  -6.6370  -6.5709  -6.3548  -6.3029
    -6.0631  -5.9408  -5.9061  -5.8326  -5.3355  -5.2148  -5.0849  -4.9952
    -4.9566  -4.9093  -4.1925  -4.1896  -3.9718  -3.8625  -3.8149  -3.7624
    -2.5217  -2.3380  -2.3234  -2.2919  -1.5748  -1.2147  -0.6773  -0.4445
    -0.3369  -0.3072   0.0049   0.0280   0.1344   0.1425   0.3418   0.4236
     0.5091   0.5566   0.5806   0.6411   0.6767   0.8038   1.0123   1.0721
     1.1216   1.1862   1.4795   1.4997   1.5467   1.6505   1.8825   1.9268
     2.0047   2.0509   2.1020   2.1245   2.1598   2.2590   2.6320   2.6560

     occupation numbers 
     1.0000   1.0000   1.0000   1.0000   1.0000   1.0000   1.0000   1.0000
     1.0000   1.0000   1.0000   1.0000   1.0000   1.0000   1.0000   1.0000
     1.0000   1.0000   1.0000   1.0000   1.0000   1.0000   1.0000   1.0000
     1.0000   1.0000   1.0000   1.0000   1.0000   1.0000   1.0000   1.0000
     1.0000   1.0000   1.0000   1.0000   1.0000   1.0000   1.0000   1.0000
     1.0000   1.0000   1.0000   1.0000   1.0000   1.0000   1.0000   1.0000
     1.0000   1.0000   1.0000   1.0000   1.0000   1.0000   1.0000   1.0000
     1.0000   1.0000   1.0000   1.0000   1.0000   1.0000   1.0000   1.0000
     1.0000   1.0000   1.0000   1.0000   0.0000   0.0000   0.0000   0.0000
     0.0000   0.0000   0.0000   0.0000   0.0000   0.0000   0.0000   0.0000
     0.0000   0.0000   0.0000   0.0000   0.0000   0.0000   0.0000   0.0000
     0.0000   0.0000   0.0000   0.0000   0.0000   0.0000   0.0000   0.0000
     0.0000   0.0000   0.0000   0.0000   0.0000   0.0000   0.0000   0.0000
     0.0000   0.0000   0.0000   0.0000   0.0000   0.0000   0.0000   0.0000
     0.0000   0.0000   0.0000   0.0000   0.0000   0.0000   0.0000   0.0000

          k = 0.4375 0.3969 0.0000 ( 59428 PWs)   bands (ev):

   -73.4619 -73.4616 -71.3727 -71.3723 -47.5876 -47.5865 -47.2962 -47.2957
   -46.9686 -46.9673 -45.3653 -45.3639 -45.0703 -45.0698 -44.8929 -44.8913
   -18.0846 -18.0423 -17.9013 -17.8801 -17.7591 -17.7003 -17.6960 -17.6000
   -17.5876 -17.5802 -17.5110 -17.3852 -11.6812 -11.5785 -11.4218 -11.2343
   -10.1526 -10.0264  -9.6962  -9.5617  -9.4433  -9.4213  -8.9715  -8.8925
    -8.8039  -8.5755  -8.5366  -8.4635  -8.2284  -8.1375  -8.0780  -8.0534
    -7.7807  -7.5748  -7.4677  -7.4434  -7.2957  -7.1864  -7.1574  -7.0484
    -6.9107  -6.8307  -6.7777  -6.6853  -6.6334  -6.5669  -6.3614  -6.3079
    -6.0591  -5.9370  -5.8997  -5.8228  -5.3317  -5.2150  -5.0904  -4.9965
    -4.9535  -4.9080  -4.1928  -4.1890  -3.9776  -3.8619  -3.8123  -3.7621
    -2.5161  -2.3380  -2.3229  -2.2919  -1.5686  -1.2097  -0.7081  -0.4429
    -0.3464  -0.3252  -0.0045   0.0095   0.1232   0.1261   0.3370   0.4249
     0.5040   0.5604   0.5940   0.6536   0.6875   0.8156   0.9998   1.0557
     1.1046   1.1664   1.4604   1.4876   1.5265   1.6423   1.8790   1.9106
     1.9764   2.0341   2.1048   2.1289   2.1476   2.2605   2.6138   2.6832

     occupation numbers 
     1.0000   1.0000   1.0000   1.0000   1.0000   1.0000   1.0000   1.0000
     1.0000   1.0000   1.0000   1.0000   1.0000   1.0000   1.0000   1.0000
     1.0000   1.0000   1.0000   1.0000   1.0000   1.0000   1.0000   1.0000
     1.0000   1.0000   1.0000   1.0000   1.0000   1.0000   1.0000   1.0000
     1.0000   1.0000   1.0000   1.0000   1.0000   1.0000   1.0000   1.0000
     1.0000   1.0000   1.0000   1.0000   1.0000   1.0000   1.0000   1.0000
     1.0000   1.0000   1.0000   1.0000   1.0000   1.0000   1.0000   1.0000
     1.0000   1.0000   1.0000   1.0000   1.0000   1.0000   1.0000   1.0000
     1.0000   1.0000   1.0000   1.0000   0.0000   0.0000   0.0000   0.0000
     0.0000   0.0000   0.0000   0.0000   0.0000   0.0000   0.0000   0.0000
     0.0000   0.0000   0.0000   0.0000   0.0000   0.0000   0.0000   0.0000
     0.0000   0.0000   0.0000   0.0000   0.0000   0.0000   0.0000   0.0000
     0.0000   0.0000   0.0000   0.0000   0.0000   0.0000   0.0000   0.0000
     0.0000   0.0000   0.0000   0.0000   0.0000   0.0000   0.0000   0.0000
     0.0000   0.0000   0.0000   0.0000   0.0000   0.0000   0.0000   0.0000

          k = 0.4333 0.4041 0.0000 ( 59428 PWs)   bands (ev):

   -73.4619 -73.4616 -71.3727 -71.3723 -47.5876 -47.5865 -47.2962 -47.2958
   -46.9686 -46.9673 -45.3653 -45.3639 -45.0703 -45.0698 -44.8928 -44.8914
   -18.0818 -18.0395 -17.9017 -17.8795 -17.7587 -17.7011 -17.6956 -17.5985
   -17.5923 -17.5833 -17.5109 -17.3864 -11.6804 -11.5775 -11.4242 -11.2353
   -10.1441 -10.0172  -9.7002  -9.5649  -9.4335  -9.4121  -8.9754  -8.8968
    -8.8136  -8.5903  -8.5411  -8.4714  -8.2304  -8.1425  -8.0793  -8.0457
    -7.7901  -7.5763  -7.4622  -7.4385  -7.2893  -7.1843  -7.1559  -7.0468
    -6.9057  -6.8331  -6.7755  -6.6828  -6.6300  -6.5624  -6.3699  -6.3117
    -6.0550  -5.9333  -5.8930  -5.8132  -5.3276  -5.2152  -5.0959  -4.9977
    -4.9506  -4.9068  -4.1933  -4.1882  -3.9834  -3.8614  -3.8098  -3.7619
    -2.5102  -2.3381  -2.3224  -2.2920  -1.5621  -1.2044  -0.7391  -0.4422
    -0.3741  -0.3242  -0.0148  -0.0088   0.1055   0.1153   0.3325   0.4251
     0.4992   0.5630   0.6075   0.6655   0.6980   0.8265   0.9878   1.0407
     1.0888   1.1479   1.4412   1.4763   1.5065   1.6344   1.8600   1.9064
     1.9462   2.0194   2.1066   2.1276   2.1460   2.2621   2.5943   2.6755

     occupation numbers 
     1.0000   1.0000   1.0000   1.0000   1.0000   1.0000   1.0000   1.0000
     1.0000   1.0000   1.0000   1.0000   1.0000   1.0000   1.0000   1.0000
     1.0000   1.0000   1.0000   1.0000   1.0000   1.0000   1.0000   1.0000
     1.0000   1.0000   1.0000   1.0000   1.0000   1.0000   1.0000   1.0000
     1.0000   1.0000   1.0000   1.0000   1.0000   1.0000   1.0000   1.0000
     1.0000   1.0000   1.0000   1.0000   1.0000   1.0000   1.0000   1.0000
     1.0000   1.0000   1.0000   1.0000   1.0000   1.0000   1.0000   1.0000
     1.0000   1.0000   1.0000   1.0000   1.0000   1.0000   1.0000   1.0000
     1.0000   1.0000   1.0000   1.0000   0.0000   0.0000   0.0000   0.0000
     0.0000   0.0000   0.0000   0.0000   0.0000   0.0000   0.0000   0.0000
     0.0000   0.0000   0.0000   0.0000   0.0000   0.0000   0.0000   0.0000
     0.0000   0.0000   0.0000   0.0000   0.0000   0.0000   0.0000   0.0000
     0.0000   0.0000   0.0000   0.0000   0.0000   0.0000   0.0000   0.0000
     0.0000   0.0000   0.0000   0.0000   0.0000   0.0000   0.0000   0.0000
     0.0000   0.0000   0.0000   0.0000   0.0000   0.0000   0.0000   0.0000

          k = 0.4292 0.4114 0.0000 ( 59428 PWs)   bands (ev):

   -73.4619 -73.4616 -71.3727 -71.3723 -47.5876 -47.5865 -47.2962 -47.2958
   -46.9686 -46.9673 -45.3652 -45.3640 -45.0703 -45.0698 -44.8928 -44.8914
   -18.0789 -18.0365 -17.9021 -17.8789 -17.7584 -17.7019 -17.6951 -17.5977
   -17.5962 -17.5865 -17.5108 -17.3876 -11.6797 -11.5764 -11.4268 -11.2364
   -10.1352 -10.0075  -9.7045  -9.5686  -9.4236  -9.4021  -8.9796  -8.9014
    -8.8234  -8.6053  -8.5453  -8.4790  -8.2326  -8.1480  -8.0811  -8.0384
    -7.7992  -7.5784  -7.4568  -7.4333  -7.2828  -7.1823  -7.1537  -7.0452
    -6.9004  -6.8354  -6.7725  -6.6804  -6.6267  -6.5575  -6.3795  -6.3147
    -6.0508  -5.9296  -5.8860  -5.8038  -5.3234  -5.2153  -5.1015  -4.9989
    -4.9478  -4.9055  -4.1938  -4.1873  -3.9893  -3.8609  -3.8073  -3.7616
    -2.5040  -2.3381  -2.3219  -2.2921  -1.5551  -1.1986  -0.7703  -0.4449
    -0.4008  -0.3206  -0.0279  -0.0249   0.0872   0.1045   0.3283   0.4243
     0.4946   0.5644   0.6211   0.6767   0.7083   0.8363   0.9763   1.0277
     1.0746   1.1310   1.4220   1.4657   1.4868   1.6269   1.8323   1.9064
     1.9169   2.0071   2.1050   2.1236   2.1526   2.2638   2.5745   2.6600

     occupation numbers 
     1.0000   1.0000   1.0000   1.0000   1.0000   1.0000   1.0000   1.0000
     1.0000   1.0000   1.0000   1.0000   1.0000   1.0000   1.0000   1.0000
     1.0000   1.0000   1.0000   1.0000   1.0000   1.0000   1.0000   1.0000
     1.0000   1.0000   1.0000   1.0000   1.0000   1.0000   1.0000   1.0000
     1.0000   1.0000   1.0000   1.0000   1.0000   1.0000   1.0000   1.0000
     1.0000   1.0000   1.0000   1.0000   1.0000   1.0000   1.0000   1.0000
     1.0000   1.0000   1.0000   1.0000   1.0000   1.0000   1.0000   1.0000
     1.0000   1.0000   1.0000   1.0000   1.0000   1.0000   1.0000   1.0000
     1.0000   1.0000   1.0000   1.0000   0.0000   0.0000   0.0000   0.0000
     0.0000   0.0000   0.0000   0.0000   0.0000   0.0000   0.0000   0.0000
     0.0000   0.0000   0.0000   0.0000   0.0000   0.0000   0.0000   0.0000
     0.0000   0.0000   0.0000   0.0000   0.0000   0.0000   0.0000   0.0000
     0.0000   0.0000   0.0000   0.0000   0.0000   0.0000   0.0000   0.0000
     0.0000   0.0000   0.0000   0.0000   0.0000   0.0000   0.0000   0.0000
     0.0000   0.0000   0.0000   0.0000   0.0000   0.0000   0.0000   0.0000

          k = 0.4250 0.4186 0.0000 ( 59440 PWs)   bands (ev):

   -73.4619 -73.4616 -71.3727 -71.3723 -47.5876 -47.5865 -47.2962 -47.2958
   -46.9685 -46.9674 -45.3652 -45.3640 -45.0703 -45.0698 -44.8928 -44.8914
   -18.0757 -18.0334 -17.9026 -17.8784 -17.7582 -17.7026 -17.6945 -17.6024
   -17.5948 -17.5898 -17.5107 -17.3890 -11.6790 -11.5751 -11.4295 -11.2374
   -10.1258  -9.9973  -9.7090  -9.5726  -9.4135  -9.3912  -8.9840  -8.9064
    -8.8333  -8.6204  -8.5492  -8.4862  -8.2350  -8.1539  -8.0834  -8.0315
    -7.8079  -7.5809  -7.4516  -7.4281  -7.2764  -7.1806  -7.1507  -7.0437
    -6.8949  -6.8374  -6.7690  -6.6782  -6.6236  -6.5523  -6.3900  -6.3173
    -6.0466  -5.9258  -5.8787  -5.7949  -5.3190  -5.2155  -5.1071  -5.0001
    -4.9451  -4.9042  -4.1944  -4.1862  -3.9952  -3.8604  -3.8049  -3.7613
    -2.4976  -2.3380  -2.3214  -2.2923  -1.5478  -1.1924  -0.8015  -0.4581
    -0.4173  -0.3167  -0.0457  -0.0367   0.0690   0.0932   0.3243   0.4223
     0.4904   0.5647   0.6346   0.6866   0.7180   0.8445   0.9655   1.0170
     1.0625   1.1160   1.4029   1.4557   1.4675   1.6196   1.8015   1.8808
     1.9135   1.9969   2.0996   2.1230   2.1611   2.2655   2.5547   2.6430

     occupation numbers 
     1.0000   1.0000   1.0000   1.0000   1.0000   1.0000   1.0000   1.0000
     1.0000   1.0000   1.0000   1.0000   1.0000   1.0000   1.0000   1.0000
     1.0000   1.0000   1.0000   1.0000   1.0000   1.0000   1.0000   1.0000
     1.0000   1.0000   1.0000   1.0000   1.0000   1.0000   1.0000   1.0000
     1.0000   1.0000   1.0000   1.0000   1.0000   1.0000   1.0000   1.0000
     1.0000   1.0000   1.0000   1.0000   1.0000   1.0000   1.0000   1.0000
     1.0000   1.0000   1.0000   1.0000   1.0000   1.0000   1.0000   1.0000
     1.0000   1.0000   1.0000   1.0000   1.0000   1.0000   1.0000   1.0000
     1.0000   1.0000   1.0000   1.0000   0.0000   0.0000   0.0000   0.0000
     0.0000   0.0000   0.0000   0.0000   0.0000   0.0000   0.0000   0.0000
     0.0000   0.0000   0.0000   0.0000   0.0000   0.0000   0.0000   0.0000
     0.0000   0.0000   0.0000   0.0000   0.0000   0.0000   0.0000   0.0000
     0.0000   0.0000   0.0000   0.0000   0.0000   0.0000   0.0000   0.0000
     0.0000   0.0000   0.0000   0.0000   0.0000   0.0000   0.0000   0.0000
     0.0000   0.0000   0.0000   0.0000   0.0000   0.0000   0.0000   0.0000

          k = 0.4208 0.4258 0.0000 ( 59426 PWs)   bands (ev):

   -73.4619 -73.4616 -71.3727 -71.3723 -47.5876 -47.5866 -47.2962 -47.2958
   -46.9685 -46.9674 -45.3652 -45.3640 -45.0703 -45.0698 -44.8928 -44.8914
   -18.0725 -18.0300 -17.9033 -17.8779 -17.7580 -17.7032 -17.6939 -17.6076
   -17.5933 -17.5930 -17.5106 -17.3904 -11.6782 -11.5738 -11.4323 -11.2385
   -10.1160  -9.9868  -9.7139  -9.5770  -9.4033  -9.3795  -8.9887  -8.9118
    -8.8431  -8.6356  -8.5527  -8.4932  -8.2375  -8.1601  -8.0861  -8.0252
    -7.8163  -7.5838  -7.4464  -7.4228  -7.2700  -7.1795  -7.1467  -7.0422
    -6.8892  -6.8390  -6.7650  -6.6761  -6.6208  -6.5467  -6.4010  -6.3198
    -6.0425  -5.9219  -5.8712  -5.7864  -5.3145  -5.2156  -5.1126  -5.0011
    -4.9425  -4.9029  -4.1949  -4.1852  -4.0012  -3.8599  -3.8027  -3.7610
    -2.4909  -2.3380  -2.3210  -2.2926  -1.5402  -1.1859  -0.8326  -0.4834
    -0.4217  -0.3127  -0.0635  -0.0487   0.0510   0.0814   0.3207   0.4193
     0.4864   0.5639   0.6481   0.6950   0.7272   0.8510   0.9558   1.0087
     1.0529   1.1030   1.3842   1.4461   1.4489   1.6125   1.7691   1.8482
     1.9170   1.9886   2.0931   2.1244   2.1697   2.2673   2.5348   2.6255

     occupation numbers 
     1.0000   1.0000   1.0000   1.0000   1.0000   1.0000   1.0000   1.0000
     1.0000   1.0000   1.0000   1.0000   1.0000   1.0000   1.0000   1.0000
     1.0000   1.0000   1.0000   1.0000   1.0000   1.0000   1.0000   1.0000
     1.0000   1.0000   1.0000   1.0000   1.0000   1.0000   1.0000   1.0000
     1.0000   1.0000   1.0000   1.0000   1.0000   1.0000   1.0000   1.0000
     1.0000   1.0000   1.0000   1.0000   1.0000   1.0000   1.0000   1.0000
     1.0000   1.0000   1.0000   1.0000   1.0000   1.0000   1.0000   1.0000
     1.0000   1.0000   1.0000   1.0000   1.0000   1.0000   1.0000   1.0000
     1.0000   1.0000   1.0000   1.0000   0.0000   0.0000   0.0000   0.0000
     0.0000   0.0000   0.0000   0.0000   0.0000   0.0000   0.0000   0.0000
     0.0000   0.0000   0.0000   0.0000   0.0000   0.0000   0.0000   0.0000
     0.0000   0.0000   0.0000   0.0000   0.0000   0.0000   0.0000   0.0000
     0.0000   0.0000   0.0000   0.0000   0.0000   0.0000   0.0000   0.0000
     0.0000   0.0000   0.0000   0.0000   0.0000   0.0000   0.0000   0.0000
     0.0000   0.0000   0.0000   0.0000   0.0000   0.0000   0.0000   0.0000

          k = 0.4167 0.4330 0.0000 ( 59428 PWs)   bands (ev):

   -73.4619 -73.4616 -71.3727 -71.3723 -47.5876 -47.5866 -47.2962 -47.2958
   -46.9685 -46.9674 -45.3652 -45.3640 -45.0703 -45.0698 -44.8928 -44.8914
   -18.0690 -18.0266 -17.9040 -17.8775 -17.7580 -17.7037 -17.6933 -17.6129
   -17.5968 -17.5910 -17.5105 -17.3919 -11.6775 -11.5724 -11.4353 -11.2395
   -10.1058  -9.9758  -9.7190  -9.5818  -9.3929  -9.3672  -8.9936  -8.9175
    -8.8529  -8.6509  -8.5560  -8.4998  -8.2401  -8.1665  -8.0892  -8.0196
    -7.8243  -7.5870  -7.4413  -7.4175  -7.2638  -7.1790  -7.1417  -7.0406
    -6.8833  -6.8402  -6.7608  -6.6740  -6.6182  -6.5409  -6.4123  -6.3223
    -6.0384  -5.9178  -5.8636  -5.7784  -5.3098  -5.2157  -5.1182  -5.0021
    -4.9400  -4.9016  -4.1954  -4.1841  -4.0071  -3.8595  -3.8005  -3.7606
    -2.4841  -2.3379  -2.3205  -2.2929  -1.5322  -1.1789  -0.8634  -0.5129
    -0.4217  -0.3089  -0.0810  -0.0611   0.0333   0.0692   0.3174   0.4153
     0.4828   0.5619   0.6615   0.7014   0.7355   0.8556   0.9478   1.0028
     1.0463   1.0921   1.3657   1.4304   1.4375   1.6056   1.7358   1.8152
     1.9206   1.9820   2.0869   2.1264   2.1781   2.2692   2.5149   2.6075

     occupation numbers 
     1.0000   1.0000   1.0000   1.0000   1.0000   1.0000   1.0000   1.0000
     1.0000   1.0000   1.0000   1.0000   1.0000   1.0000   1.0000   1.0000
     1.0000   1.0000   1.0000   1.0000   1.0000   1.0000   1.0000   1.0000
     1.0000   1.0000   1.0000   1.0000   1.0000   1.0000   1.0000   1.0000
     1.0000   1.0000   1.0000   1.0000   1.0000   1.0000   1.0000   1.0000
     1.0000   1.0000   1.0000   1.0000   1.0000   1.0000   1.0000   1.0000
     1.0000   1.0000   1.0000   1.0000   1.0000   1.0000   1.0000   1.0000
     1.0000   1.0000   1.0000   1.0000   1.0000   1.0000   1.0000   1.0000
     1.0000   1.0000   1.0000   1.0000   0.0000   0.0000   0.0000   0.0000
     0.0000   0.0000   0.0000   0.0000   0.0000   0.0000   0.0000   0.0000
     0.0000   0.0000   0.0000   0.0000   0.0000   0.0000   0.0000   0.0000
     0.0000   0.0000   0.0000   0.0000   0.0000   0.0000   0.0000   0.0000
     0.0000   0.0000   0.0000   0.0000   0.0000   0.0000   0.0000   0.0000
     0.0000   0.0000   0.0000   0.0000   0.0000   0.0000   0.0000   0.0000
     0.0000   0.0000   0.0000   0.0000   0.0000   0.0000   0.0000   0.0000

          k = 0.4125 0.4402 0.0000 ( 59418 PWs)   bands (ev):

   -73.4619 -73.4616 -71.3727 -71.3723 -47.5875 -47.5866 -47.2962 -47.2958
   -46.9685 -46.9674 -45.3652 -45.3640 -45.0703 -45.0698 -44.8927 -44.8915
   -18.0654 -18.0229 -17.9049 -17.8772 -17.7581 -17.7041 -17.6926 -17.6183
   -17.6004 -17.5889 -17.5104 -17.3935 -11.6767 -11.5708 -11.4384 -11.2406
   -10.0952  -9.9644  -9.7245  -9.5868  -9.3824  -9.3542  -8.9988  -8.9235
    -8.8626  -8.6661  -8.5589  -8.5059  -8.2428  -8.1731  -8.0926  -8.0148
    -7.8319  -7.5903  -7.4363  -7.4122  -7.2577  -7.1792  -7.1359  -7.0388
    -6.8774  -6.8408  -6.7563  -6.6720  -6.6158  -6.5350  -6.4237  -6.3250
    -6.0345  -5.9137  -5.8560  -5.7709  -5.3051  -5.2157  -5.1238  -5.0029
    -4.9377  -4.9003  -4.1958  -4.1830  -4.0131  -3.8591  -3.7984  -3.7602
    -2.4770  -2.3378  -2.3201  -2.2934  -1.5238  -1.1716  -0.8939  -0.5433
    -0.4207  -0.3052  -0.0980  -0.0738   0.0160   0.0566   0.3144   0.4105
     0.4794   0.5589   0.6748   0.7053   0.7426   0.8584   0.9421   0.9990
     1.0430   1.0833   1.3478   1.4129   1.4290   1.5988   1.7021   1.7821
     1.9242   1.9766   2.0815   2.1287   2.1860   2.2714   2.4951   2.5892

     occupation numbers 
     1.0000   1.0000   1.0000   1.0000   1.0000   1.0000   1.0000   1.0000
     1.0000   1.0000   1.0000   1.0000   1.0000   1.0000   1.0000   1.0000
     1.0000   1.0000   1.0000   1.0000   1.0000   1.0000   1.0000   1.0000
     1.0000   1.0000   1.0000   1.0000   1.0000   1.0000   1.0000   1.0000
     1.0000   1.0000   1.0000   1.0000   1.0000   1.0000   1.0000   1.0000
     1.0000   1.0000   1.0000   1.0000   1.0000   1.0000   1.0000   1.0000
     1.0000   1.0000   1.0000   1.0000   1.0000   1.0000   1.0000   1.0000
     1.0000   1.0000   1.0000   1.0000   1.0000   1.0000   1.0000   1.0000
     1.0000   1.0000   1.0000   1.0000   0.0000   0.0000   0.0000   0.0000
     0.0000   0.0000   0.0000   0.0000   0.0000   0.0000   0.0000   0.0000
     0.0000   0.0000   0.0000   0.0000   0.0000   0.0000   0.0000   0.0000
     0.0000   0.0000   0.0000   0.0000   0.0000   0.0000   0.0000   0.0000
     0.0000   0.0000   0.0000   0.0000   0.0000   0.0000   0.0000   0.0000
     0.0000   0.0000   0.0000   0.0000   0.0000   0.0000   0.0000   0.0000
     0.0000   0.0000   0.0000   0.0000   0.0000   0.0000   0.0000   0.0000

          k = 0.4083 0.4474 0.0000 ( 59412 PWs)   bands (ev):

   -73.4619 -73.4616 -71.3727 -71.3723 -47.5875 -47.5866 -47.2962 -47.2958
   -46.9685 -46.9674 -45.3652 -45.3641 -45.0703 -45.0698 -44.8927 -44.8915
   -18.0616 -18.0191 -17.9059 -17.8770 -17.7583 -17.7043 -17.6919 -17.6237
   -17.6042 -17.5868 -17.5103 -17.3951 -11.6760 -11.5691 -11.4416 -11.2416
   -10.0842  -9.9527  -9.7302  -9.5923  -9.3716  -9.3408  -9.0043  -8.9299
    -8.8721  -8.6812  -8.5614  -8.5117  -8.2455  -8.1799  -8.0963  -8.0109
    -7.8391  -7.5938  -7.4314  -7.4070  -7.2519  -7.1800  -7.1294  -7.0368
    -6.8717  -6.8408  -6.7516  -6.6700  -6.6137  -6.5291  -6.4352  -6.3278
    -6.0307  -5.9093  -5.8483  -5.7641  -5.3003  -5.2157  -5.1293  -5.0037
    -4.9355  -4.8991  -4.1962  -4.1819  -4.0190  -3.8588  -3.7964  -3.7598
    -2.4699  -2.3377  -2.3197  -2.2940  -1.5151  -1.1639  -0.9239  -0.5737
    -0.4193  -0.3018  -0.1145  -0.0868  -0.0007   0.0439   0.3116   0.4049
     0.4763   0.5550   0.6876   0.7068   0.7481   0.8601   0.9394   0.9969
     1.0428   1.0767   1.3304   1.3963   1.4208   1.5921   1.6682   1.7491
     1.9277   1.9726   2.0770   2.1310   2.1933   2.2738   2.4753   2.5706

     occupation numbers 
     1.0000   1.0000   1.0000   1.0000   1.0000   1.0000   1.0000   1.0000
     1.0000   1.0000   1.0000   1.0000   1.0000   1.0000   1.0000   1.0000
     1.0000   1.0000   1.0000   1.0000   1.0000   1.0000   1.0000   1.0000
     1.0000   1.0000   1.0000   1.0000   1.0000   1.0000   1.0000   1.0000
     1.0000   1.0000   1.0000   1.0000   1.0000   1.0000   1.0000   1.0000
     1.0000   1.0000   1.0000   1.0000   1.0000   1.0000   1.0000   1.0000
     1.0000   1.0000   1.0000   1.0000   1.0000   1.0000   1.0000   1.0000
     1.0000   1.0000   1.0000   1.0000   1.0000   1.0000   1.0000   1.0000
     1.0000   1.0000   1.0000   1.0000   0.0000   0.0000   0.0000   0.0000
     0.0000   0.0000   0.0000   0.0000   0.0000   0.0000   0.0000   0.0000
     0.0000   0.0000   0.0000   0.0000   0.0000   0.0000   0.0000   0.0000
     0.0000   0.0000   0.0000   0.0000   0.0000   0.0000   0.0000   0.0000
     0.0000   0.0000   0.0000   0.0000   0.0000   0.0000   0.0000   0.0000
     0.0000   0.0000   0.0000   0.0000   0.0000   0.0000   0.0000   0.0000
     0.0000   0.0000   0.0000   0.0000   0.0000   0.0000   0.0000   0.0000

          k = 0.4042 0.4547 0.0000 ( 59408 PWs)   bands (ev):

   -73.4619 -73.4616 -71.3727 -71.3723 -47.5875 -47.5866 -47.2962 -47.2958
   -46.9684 -46.9674 -45.3651 -45.3641 -45.0703 -45.0698 -44.8927 -44.8915
   -18.0577 -18.0151 -17.9071 -17.8769 -17.7587 -17.7042 -17.6912 -17.6292
   -17.6080 -17.5845 -17.5103 -17.3968 -11.6753 -11.5673 -11.4450 -11.2426
   -10.0729  -9.9407  -9.7363  -9.5980  -9.3606  -9.3270  -9.0100  -8.9366
    -8.8814  -8.6962  -8.5636  -8.5170  -8.2483  -8.1868  -8.1003  -8.0077
    -7.8458  -7.5973  -7.4267  -7.4018  -7.2463  -7.1814  -7.1223  -7.0344
    -6.8665  -6.8397  -6.7468  -6.6681  -6.6117  -6.5232  -6.4465  -6.3308
    -6.0271  -5.9048  -5.8407  -5.7579  -5.2955  -5.2157  -5.1348  -5.0043
    -4.9335  -4.8978  -4.1965  -4.1808  -4.0248  -3.8585  -3.7946  -3.7594
    -2.4626  -2.3375  -2.3194  -2.2947  -1.5061  -1.1558  -0.9534  -0.6038
    -0.4180  -0.2987  -0.1302  -0.0998  -0.0168   0.0310   0.3091   0.3988
     0.4734   0.5503   0.6974   0.7084   0.7516   0.8616   0.9398   0.9964
     1.0452   1.0722   1.3136   1.3805   1.4129   1.5855   1.6342   1.7164
     1.9310   1.9696   2.0734   2.1333   2.2000   2.2764   2.4556   2.5518

     occupation numbers 
     1.0000   1.0000   1.0000   1.0000   1.0000   1.0000   1.0000   1.0000
     1.0000   1.0000   1.0000   1.0000   1.0000   1.0000   1.0000   1.0000
     1.0000   1.0000   1.0000   1.0000   1.0000   1.0000   1.0000   1.0000
     1.0000   1.0000   1.0000   1.0000   1.0000   1.0000   1.0000   1.0000
     1.0000   1.0000   1.0000   1.0000   1.0000   1.0000   1.0000   1.0000
     1.0000   1.0000   1.0000   1.0000   1.0000   1.0000   1.0000   1.0000
     1.0000   1.0000   1.0000   1.0000   1.0000   1.0000   1.0000   1.0000
     1.0000   1.0000   1.0000   1.0000   1.0000   1.0000   1.0000   1.0000
     1.0000   1.0000   1.0000   1.0000   0.0000   0.0000   0.0000   0.0000
     0.0000   0.0000   0.0000   0.0000   0.0000   0.0000   0.0000   0.0000
     0.0000   0.0000   0.0000   0.0000   0.0000   0.0000   0.0000   0.0000
     0.0000   0.0000   0.0000   0.0000   0.0000   0.0000   0.0000   0.0000
     0.0000   0.0000   0.0000   0.0000   0.0000   0.0000   0.0000   0.0000
     0.0000   0.0000   0.0000   0.0000   0.0000   0.0000   0.0000   0.0000
     0.0000   0.0000   0.0000   0.0000   0.0000   0.0000   0.0000   0.0000

          k = 0.4000 0.4619 0.0000 ( 59408 PWs)   bands (ev):

   -73.4619 -73.4616 -71.3727 -71.3723 -47.5875 -47.5866 -47.2962 -47.2958
   -46.9684 -46.9675 -45.3651 -45.3641 -45.0703 -45.0698 -44.8927 -44.8915
   -18.0536 -18.0110 -17.9084 -17.8769 -17.7592 -17.7040 -17.6904 -17.6346
   -17.6119 -17.5822 -17.5104 -17.3985 -11.6746 -11.5653 -11.4485 -11.2436
   -10.0614  -9.9284  -9.7426  -9.6040  -9.3493  -9.3130  -9.0158  -8.9437
    -8.8904  -8.7111  -8.5653  -8.5219  -8.2511  -8.1938  -8.1045  -8.0055
    -7.8522  -7.6008  -7.4221  -7.3966  -7.2410  -7.1832  -7.1148  -7.0317
    -6.8625  -6.8371  -6.7420  -6.6662  -6.6100  -6.5175  -6.4577  -6.3338
    -6.0238  -5.9001  -5.8332  -5.7523  -5.2907  -5.2156  -5.1403  -5.0049
    -4.9316  -4.8966  -4.1967  -4.1798  -4.0305  -3.8582  -3.7929  -3.7589
    -2.4553  -2.3374  -2.3191  -2.2955  -1.4969  -1.1473  -0.9823  -0.6333
    -0.4169  -0.2962  -0.1452  -0.1129  -0.0319   0.0181   0.3069   0.3922
     0.4708   0.5449   0.6968   0.7178   0.7526   0.8639   0.9432   0.9972
     1.0496   1.0697   1.2974   1.3657   1.4051   1.5788   1.6004   1.6842
     1.9343   1.9676   2.0706   2.1357   2.2060   2.2791   2.4361   2.5328

     occupation numbers 
     1.0000   1.0000   1.0000   1.0000   1.0000   1.0000   1.0000   1.0000
     1.0000   1.0000   1.0000   1.0000   1.0000   1.0000   1.0000   1.0000
     1.0000   1.0000   1.0000   1.0000   1.0000   1.0000   1.0000   1.0000
     1.0000   1.0000   1.0000   1.0000   1.0000   1.0000   1.0000   1.0000
     1.0000   1.0000   1.0000   1.0000   1.0000   1.0000   1.0000   1.0000
     1.0000   1.0000   1.0000   1.0000   1.0000   1.0000   1.0000   1.0000
     1.0000   1.0000   1.0000   1.0000   1.0000   1.0000   1.0000   1.0000
     1.0000   1.0000   1.0000   1.0000   1.0000   1.0000   1.0000   1.0000
     1.0000   1.0000   1.0000   1.0000   0.0000   0.0000   0.0000   0.0000
     0.0000   0.0000   0.0000   0.0000   0.0000   0.0000   0.0000   0.0000
     0.0000   0.0000   0.0000   0.0000   0.0000   0.0000   0.0000   0.0000
     0.0000   0.0000   0.0000   0.0000   0.0000   0.0000   0.0000   0.0000
     0.0000   0.0000   0.0000   0.0000   0.0000   0.0000   0.0000   0.0000
     0.0000   0.0000   0.0000   0.0000   0.0000   0.0000   0.0000   0.0000
     0.0000   0.0000   0.0000   0.0000   0.0000   0.0000   0.0000   0.0000

          k = 0.3958 0.4691 0.0000 ( 59414 PWs)   bands (ev):

   -73.4619 -73.4616 -71.3727 -71.3723 -47.5875 -47.5867 -47.2962 -47.2958
   -46.9684 -46.9675 -45.3651 -45.3641 -45.0703 -45.0698 -44.8926 -44.8916
   -18.0493 -18.0067 -17.9100 -17.8772 -17.7599 -17.7035 -17.6896 -17.6400
   -17.6158 -17.5798 -17.5106 -17.4003 -11.6740 -11.5632 -11.4521 -11.2445
   -10.0496  -9.9159  -9.7492  -9.6104  -9.3378  -9.2987  -9.0219  -8.9510
    -8.8991  -8.7259  -8.5667  -8.5264  -8.2539  -8.2007  -8.1088  -8.0041
    -7.8581  -7.6040  -7.4177  -7.3916  -7.2360  -7.1855  -7.1070  -7.0286
    -6.8599  -6.8326  -6.7372  -6.6644  -6.6085  -6.5120  -6.4686  -6.3370
    -6.0206  -5.8953  -5.8259  -5.7474  -5.2859  -5.2154  -5.1457  -5.0053
    -4.9298  -4.8954  -4.1969  -4.1788  -4.0362  -3.8579  -3.7913  -3.7584
    -2.4479  -2.3372  -2.3188  -2.2964  -1.4873  -1.1385  -1.0104  -0.6621
    -0.4161  -0.2941  -0.1594  -0.1260  -0.0461   0.0052   0.3049   0.3852
     0.4685   0.5390   0.6908   0.7303   0.7511   0.8676   0.9492   0.9993
     1.0550   1.0695   1.2821   1.3519   1.3975   1.5665   1.5723   1.6526
     1.9376   1.9667   2.0687   2.1380   2.2115   2.2819   2.4167   2.5137

     occupation numbers 
     1.0000   1.0000   1.0000   1.0000   1.0000   1.0000   1.0000   1.0000
     1.0000   1.0000   1.0000   1.0000   1.0000   1.0000   1.0000   1.0000
     1.0000   1.0000   1.0000   1.0000   1.0000   1.0000   1.0000   1.0000
     1.0000   1.0000   1.0000   1.0000   1.0000   1.0000   1.0000   1.0000
     1.0000   1.0000   1.0000   1.0000   1.0000   1.0000   1.0000   1.0000
     1.0000   1.0000   1.0000   1.0000   1.0000   1.0000   1.0000   1.0000
     1.0000   1.0000   1.0000   1.0000   1.0000   1.0000   1.0000   1.0000
     1.0000   1.0000   1.0000   1.0000   1.0000   1.0000   1.0000   1.0000
     1.0000   1.0000   1.0000   1.0000   0.0000   0.0000   0.0000   0.0000
     0.0000   0.0000   0.0000   0.0000   0.0000   0.0000   0.0000   0.0000
     0.0000   0.0000   0.0000   0.0000   0.0000   0.0000   0.0000   0.0000
     0.0000   0.0000   0.0000   0.0000   0.0000   0.0000   0.0000   0.0000
     0.0000   0.0000   0.0000   0.0000   0.0000   0.0000   0.0000   0.0000
     0.0000   0.0000   0.0000   0.0000   0.0000   0.0000   0.0000   0.0000
     0.0000   0.0000   0.0000   0.0000   0.0000   0.0000   0.0000   0.0000

          k = 0.3917 0.4763 0.0000 ( 59412 PWs)   bands (ev):

   -73.4619 -73.4616 -71.3727 -71.3723 -47.5875 -47.5867 -47.2962 -47.2958
   -46.9684 -46.9675 -45.3651 -45.3642 -45.0703 -45.0698 -44.8926 -44.8916
   -18.0449 -18.0022 -17.9118 -17.8777 -17.7607 -17.7029 -17.6888 -17.6453
   -17.6198 -17.5773 -17.5108 -17.4020 -11.6734 -11.5610 -11.4558 -11.2454
   -10.0376  -9.9033  -9.7561  -9.6170  -9.3260  -9.2844  -9.0280  -8.9585
    -8.9075  -8.7404  -8.5677  -8.5303  -8.2566  -8.2077  -8.1131  -8.0035
    -7.8636  -7.6071  -7.4134  -7.3866  -7.2314  -7.1880  -7.0991  -7.0250
    -6.8588  -6.8265  -6.7326  -6.6627  -6.6071  -6.5070  -6.4790  -6.3403
    -6.0177  -5.8903  -5.8189  -5.7433  -5.2812  -5.2152  -5.1510  -5.0055
    -4.9281  -4.8942  -4.1969  -4.1779  -4.0417  -3.8577  -3.7898  -3.7579
    -2.4404  -2.3370  -2.3187  -2.2975  -1.4775  -1.1294  -1.0379  -0.6902
    -0.4157  -0.2928  -0.1726  -0.1388  -0.0592  -0.0075   0.3032   0.3781
     0.4664   0.5327   0.6828   0.7431   0.7474   0.8731   0.9573   1.0025
     1.0602   1.0719   1.2676   1.3392   1.3899   1.5334   1.5652   1.6218
     1.9408   1.9666   2.0676   2.1402   2.2165   2.2845   2.3978   2.4945

     occupation numbers 
     1.0000   1.0000   1.0000   1.0000   1.0000   1.0000   1.0000   1.0000
     1.0000   1.0000   1.0000   1.0000   1.0000   1.0000   1.0000   1.0000
     1.0000   1.0000   1.0000   1.0000   1.0000   1.0000   1.0000   1.0000
     1.0000   1.0000   1.0000   1.0000   1.0000   1.0000   1.0000   1.0000
     1.0000   1.0000   1.0000   1.0000   1.0000   1.0000   1.0000   1.0000
     1.0000   1.0000   1.0000   1.0000   1.0000   1.0000   1.0000   1.0000
     1.0000   1.0000   1.0000   1.0000   1.0000   1.0000   1.0000   1.0000
     1.0000   1.0000   1.0000   1.0000   1.0000   1.0000   1.0000   1.0000
     1.0000   1.0000   1.0000   1.0000   0.0000   0.0000   0.0000   0.0000
     0.0000   0.0000   0.0000   0.0000   0.0000   0.0000   0.0000   0.0000
     0.0000   0.0000   0.0000   0.0000   0.0000   0.0000   0.0000   0.0000
     0.0000   0.0000   0.0000   0.0000   0.0000   0.0000   0.0000   0.0000
     0.0000   0.0000   0.0000   0.0000   0.0000   0.0000   0.0000   0.0000
     0.0000   0.0000   0.0000   0.0000   0.0000   0.0000   0.0000   0.0000
     0.0000   0.0000   0.0000   0.0000   0.0000   0.0000   0.0000   0.0000

          k = 0.3875 0.4835 0.0000 ( 59402 PWs)   bands (ev):

   -73.4619 -73.4616 -71.3727 -71.3723 -47.5874 -47.5867 -47.2962 -47.2958
   -46.9684 -46.9675 -45.3650 -45.3642 -45.0703 -45.0699 -44.8926 -44.8916
   -18.0404 -17.9976 -17.9138 -17.8784 -17.7615 -17.7020 -17.6880 -17.6504
   -17.6238 -17.5747 -17.5112 -17.4038 -11.6728 -11.5586 -11.4596 -11.2462
   -10.0254  -9.8904  -9.7632  -9.6240  -9.3139  -9.2700  -9.0343  -8.9663
    -8.9154  -8.7548  -8.5684  -8.5339  -8.2594  -8.2145  -8.1175  -8.0036
    -7.8688  -7.6100  -7.4094  -7.3817  -7.2273  -7.1907  -7.0911  -7.0210
    -6.8589  -6.8192  -6.7281  -6.6610  -6.6060  -6.5031  -6.4884  -6.3435
    -6.0150  -5.8851  -5.8121  -5.7398  -5.2766  -5.2149  -5.1563  -5.0057
    -4.9266  -4.8931  -4.1968  -4.1771  -4.0470  -3.8575  -3.7885  -3.7574
    -2.4330  -2.3368  -2.3187  -2.2985  -1.4674  -1.1199  -1.0644  -0.7174
    -0.4157  -0.2921  -0.1847  -0.1513  -0.0711  -0.0200   0.3018   0.3708
     0.4646   0.5262   0.6737   0.7414   0.7565   0.8800   0.9671   1.0068
     1.0646   1.0768   1.2539   1.3275   1.3822   1.5006   1.5581   1.5921
     1.9440   1.9673   2.0672   2.1425   2.2211   2.2867   2.3794   2.4753

     occupation numbers 
     1.0000   1.0000   1.0000   1.0000   1.0000   1.0000   1.0000   1.0000
     1.0000   1.0000   1.0000   1.0000   1.0000   1.0000   1.0000   1.0000
     1.0000   1.0000   1.0000   1.0000   1.0000   1.0000   1.0000   1.0000
     1.0000   1.0000   1.0000   1.0000   1.0000   1.0000   1.0000   1.0000
     1.0000   1.0000   1.0000   1.0000   1.0000   1.0000   1.0000   1.0000
     1.0000   1.0000   1.0000   1.0000   1.0000   1.0000   1.0000   1.0000
     1.0000   1.0000   1.0000   1.0000   1.0000   1.0000   1.0000   1.0000
     1.0000   1.0000   1.0000   1.0000   1.0000   1.0000   1.0000   1.0000
     1.0000   1.0000   1.0000   1.0000   0.0000   0.0000   0.0000   0.0000
     0.0000   0.0000   0.0000   0.0000   0.0000   0.0000   0.0000   0.0000
     0.0000   0.0000   0.0000   0.0000   0.0000   0.0000   0.0000   0.0000
     0.0000   0.0000   0.0000   0.0000   0.0000   0.0000   0.0000   0.0000
     0.0000   0.0000   0.0000   0.0000   0.0000   0.0000   0.0000   0.0000
     0.0000   0.0000   0.0000   0.0000   0.0000   0.0000   0.0000   0.0000
     0.0000   0.0000   0.0000   0.0000   0.0000   0.0000   0.0000   0.0000

          k = 0.3833 0.4907 0.0000 ( 59408 PWs)   bands (ev):

   -73.4619 -73.4616 -71.3727 -71.3723 -47.5874 -47.5867 -47.2962 -47.2958
   -46.9683 -46.9676 -45.3650 -45.3642 -45.0702 -45.0699 -44.8926 -44.8916
   -18.0357 -17.9928 -17.9161 -17.8795 -17.7624 -17.7009 -17.6871 -17.6553
   -17.6278 -17.5720 -17.5117 -17.4055 -11.6723 -11.5560 -11.4635 -11.2470
   -10.0131  -9.8776  -9.7707  -9.6312  -9.3017  -9.2558  -9.0407  -8.9742
    -8.9229  -8.7689  -8.5687  -8.5370  -8.2621  -8.2212  -8.1217  -8.0044
    -7.8736  -7.6126  -7.4055  -7.3769  -7.2238  -7.1932  -7.0831  -7.0166
    -6.8597  -6.8111  -6.7239  -6.6594  -6.6051  -6.5039  -6.4930  -6.3466
    -6.0125  -5.8798  -5.8056  -5.7370  -5.2721  -5.2146  -5.1614  -5.0057
    -4.9252  -4.8920  -4.1967  -4.1764  -4.0520  -3.8574  -3.7873  -3.7569
    -2.4256  -2.3366  -2.3188  -2.2997  -1.4571  -1.1101  -1.0902  -0.7438
    -0.4161  -0.2921  -0.1958  -0.1634  -0.0817  -0.0322   0.3005   0.3636
     0.4630   0.5195   0.6641   0.7347   0.7694   0.8881   0.9781   1.0120
     1.0688   1.0832   1.2412   1.3168   1.3745   1.4684   1.5504   1.5641
     1.9473   1.9689   2.0675   2.1446   2.2254   2.2880   2.3622   2.4562

     occupation numbers 
     1.0000   1.0000   1.0000   1.0000   1.0000   1.0000   1.0000   1.0000
     1.0000   1.0000   1.0000   1.0000   1.0000   1.0000   1.0000   1.0000
     1.0000   1.0000   1.0000   1.0000   1.0000   1.0000   1.0000   1.0000
     1.0000   1.0000   1.0000   1.0000   1.0000   1.0000   1.0000   1.0000
     1.0000   1.0000   1.0000   1.0000   1.0000   1.0000   1.0000   1.0000
     1.0000   1.0000   1.0000   1.0000   1.0000   1.0000   1.0000   1.0000
     1.0000   1.0000   1.0000   1.0000   1.0000   1.0000   1.0000   1.0000
     1.0000   1.0000   1.0000   1.0000   1.0000   1.0000   1.0000   1.0000
     1.0000   1.0000   1.0000   1.0000   0.0000   0.0000   0.0000   0.0000
     0.0000   0.0000   0.0000   0.0000   0.0000   0.0000   0.0000   0.0000
     0.0000   0.0000   0.0000   0.0000   0.0000   0.0000   0.0000   0.0000
     0.0000   0.0000   0.0000   0.0000   0.0000   0.0000   0.0000   0.0000
     0.0000   0.0000   0.0000   0.0000   0.0000   0.0000   0.0000   0.0000
     0.0000   0.0000   0.0000   0.0000   0.0000   0.0000   0.0000   0.0000
     0.0000   0.0000   0.0000   0.0000   0.0000   0.0000   0.0000   0.0000

          k = 0.3792 0.4980 0.0000 ( 59406 PWs)   bands (ev):

   -73.4619 -73.4616 -71.3727 -71.3723 -47.5874 -47.5867 -47.2962 -47.2958
   -46.9683 -46.9676 -45.3650 -45.3642 -45.0702 -45.0699 -44.8925 -44.8917
   -18.0308 -17.9879 -17.9186 -17.8808 -17.7634 -17.6997 -17.6862 -17.6600
   -17.6319 -17.5693 -17.5123 -17.4072 -11.6718 -11.5534 -11.4674 -11.2477
   -10.0007  -9.8646  -9.7783  -9.6386  -9.2892  -9.2418  -9.0471  -8.9822
    -8.9298  -8.7828  -8.5686  -8.5397  -8.2649  -8.2277  -8.1258  -8.0058
    -7.8782  -7.6149  -7.4019  -7.3723  -7.2213  -7.1953  -7.0752  -7.0118
    -6.8613  -6.8025  -6.7201  -6.6579  -6.6043  -6.5114  -6.4910  -6.3496
    -6.0103  -5.8744  -5.7996  -5.7350  -5.2678  -5.2142  -5.1664  -5.0056
    -4.9240  -4.8910  -4.1964  -4.1758  -4.0569  -3.8572  -3.7862  -3.7563
    -2.4183  -2.3364  -2.3192  -2.3008  -1.4465  -1.1150  -1.1000  -0.7691
    -0.4170  -0.2930  -0.2056  -0.1750  -0.0908  -0.0438   0.2995   0.3565
     0.4616   0.5129   0.6544   0.7273   0.7822   0.8971   0.9898   1.0180
     1.0734   1.0898   1.2296   1.3069   1.3666   1.4369   1.5347   1.5455
     1.9507   1.9713   2.0684   2.1467   2.2295   2.2874   2.3468   2.4372

     occupation numbers 
     1.0000   1.0000   1.0000   1.0000   1.0000   1.0000   1.0000   1.0000
     1.0000   1.0000   1.0000   1.0000   1.0000   1.0000   1.0000   1.0000
     1.0000   1.0000   1.0000   1.0000   1.0000   1.0000   1.0000   1.0000
     1.0000   1.0000   1.0000   1.0000   1.0000   1.0000   1.0000   1.0000
     1.0000   1.0000   1.0000   1.0000   1.0000   1.0000   1.0000   1.0000
     1.0000   1.0000   1.0000   1.0000   1.0000   1.0000   1.0000   1.0000
     1.0000   1.0000   1.0000   1.0000   1.0000   1.0000   1.0000   1.0000
     1.0000   1.0000   1.0000   1.0000   1.0000   1.0000   1.0000   1.0000
     1.0000   1.0000   1.0000   1.0000   0.0000   0.0000   0.0000   0.0000
     0.0000   0.0000   0.0000   0.0000   0.0000   0.0000   0.0000   0.0000
     0.0000   0.0000   0.0000   0.0000   0.0000   0.0000   0.0000   0.0000
     0.0000   0.0000   0.0000   0.0000   0.0000   0.0000   0.0000   0.0000
     0.0000   0.0000   0.0000   0.0000   0.0000   0.0000   0.0000   0.0000
     0.0000   0.0000   0.0000   0.0000   0.0000   0.0000   0.0000   0.0000
     0.0000   0.0000   0.0000   0.0000   0.0000   0.0000   0.0000   0.0000

          k = 0.3750 0.5052 0.0000 ( 59424 PWs)   bands (ev):

   -73.4619 -73.4616 -71.3727 -71.3723 -47.5874 -47.5868 -47.2961 -47.2958
   -46.9683 -46.9676 -45.3650 -45.3642 -45.0702 -45.0699 -44.8925 -44.8917
   -18.0258 -17.9828 -17.9215 -17.8825 -17.7644 -17.6982 -17.6853 -17.6644
   -17.6359 -17.5665 -17.5132 -17.4088 -11.6714 -11.5505 -11.4715 -11.2484
    -9.9884  -9.8517  -9.7862  -9.6463  -9.2766  -9.2281  -9.0535  -8.9904
    -8.9361  -8.7964  -8.5683  -8.5421  -8.2676  -8.2338  -8.1297  -8.0076
    -7.8824  -7.6169  -7.3984  -7.3678  -7.2202  -7.1965  -7.0676  -7.0066
    -6.8634  -6.7937  -6.7166  -6.6564  -6.6038  -6.5199  -6.4879  -6.3524
    -6.0083  -5.8689  -5.7939  -5.7336  -5.2637  -5.2137  -5.1713  -5.0054
    -4.9228  -4.8900  -4.1960  -4.1754  -4.0614  -3.8571  -3.7852  -3.7558
    -2.4111  -2.3362  -2.3198  -2.3019  -1.4358  -1.1388  -1.0897  -0.7935
    -0.4183  -0.2945  -0.2144  -0.1860  -0.0986  -0.0550   0.2987   0.3496
     0.4605   0.5064   0.6449   0.7199   0.7948   0.9066   1.0019   1.0248
     1.0787   1.0961   1.2190   1.2975   1.3584   1.4062   1.5106   1.5371
     1.9541   1.9744   2.0699   2.1488   2.2336   2.2836   2.3347   2.4185

     occupation numbers 
     1.0000   1.0000   1.0000   1.0000   1.0000   1.0000   1.0000   1.0000
     1.0000   1.0000   1.0000   1.0000   1.0000   1.0000   1.0000   1.0000
     1.0000   1.0000   1.0000   1.0000   1.0000   1.0000   1.0000   1.0000
     1.0000   1.0000   1.0000   1.0000   1.0000   1.0000   1.0000   1.0000
     1.0000   1.0000   1.0000   1.0000   1.0000   1.0000   1.0000   1.0000
     1.0000   1.0000   1.0000   1.0000   1.0000   1.0000   1.0000   1.0000
     1.0000   1.0000   1.0000   1.0000   1.0000   1.0000   1.0000   1.0000
     1.0000   1.0000   1.0000   1.0000   1.0000   1.0000   1.0000   1.0000
     1.0000   1.0000   1.0000   1.0000   0.0000   0.0000   0.0000   0.0000
     0.0000   0.0000   0.0000   0.0000   0.0000   0.0000   0.0000   0.0000
     0.0000   0.0000   0.0000   0.0000   0.0000   0.0000   0.0000   0.0000
     0.0000   0.0000   0.0000   0.0000   0.0000   0.0000   0.0000   0.0000
     0.0000   0.0000   0.0000   0.0000   0.0000   0.0000   0.0000   0.0000
     0.0000   0.0000   0.0000   0.0000   0.0000   0.0000   0.0000   0.0000
     0.0000   0.0000   0.0000   0.0000   0.0000   0.0000   0.0000   0.0000

          k = 0.3708 0.5124 0.0000 ( 59428 PWs)   bands (ev):

   -73.4619 -73.4616 -71.3727 -71.3723 -47.5874 -47.5868 -47.2961 -47.2958
   -46.9683 -46.9676 -45.3649 -45.3643 -45.0702 -45.0699 -44.8925 -44.8917
   -18.0207 -17.9776 -17.9247 -17.8846 -17.7654 -17.6966 -17.6844 -17.6685
   -17.6400 -17.5636 -17.5142 -17.4104 -11.6710 -11.5476 -11.4756 -11.2490
    -9.9761  -9.8389  -9.7943  -9.6543  -9.2639  -9.2150  -9.0597  -8.9986
    -8.9415  -8.8098  -8.5676  -8.5441  -8.2703  -8.2395  -8.1332  -8.0099
    -7.8863  -7.6186  -7.3952  -7.3636  -7.2206  -7.1965  -7.0602  -7.0012
    -6.8660  -6.7848  -6.7136  -6.6550  -6.6035  -6.5280  -6.4851  -6.3550
    -6.0066  -5.8633  -5.7887  -5.7330  -5.2598  -5.2131  -5.1760  -5.0052
    -4.9218  -4.8891  -4.1955  -4.1752  -4.0656  -3.8570  -3.7843  -3.7553
    -2.4040  -2.3360  -2.3207  -2.3030  -1.4248  -1.1616  -1.0791  -0.8168
    -0.4200  -0.2967  -0.2220  -0.1962  -0.1050  -0.0654   0.2982   0.3430
     0.4596   0.5000   0.6360   0.7127   0.8072   0.9164   1.0140   1.0322
     1.0847   1.1019   1.2094   1.2881   1.3499   1.3769   1.4884   1.5292
     1.9576   1.9781   2.0719   2.1508   2.2377   2.2754   2.3270   2.4002

     occupation numbers 
     1.0000   1.0000   1.0000   1.0000   1.0000   1.0000   1.0000   1.0000
     1.0000   1.0000   1.0000   1.0000   1.0000   1.0000   1.0000   1.0000
     1.0000   1.0000   1.0000   1.0000   1.0000   1.0000   1.0000   1.0000
     1.0000   1.0000   1.0000   1.0000   1.0000   1.0000   1.0000   1.0000
     1.0000   1.0000   1.0000   1.0000   1.0000   1.0000   1.0000   1.0000
     1.0000   1.0000   1.0000   1.0000   1.0000   1.0000   1.0000   1.0000
     1.0000   1.0000   1.0000   1.0000   1.0000   1.0000   1.0000   1.0000
     1.0000   1.0000   1.0000   1.0000   1.0000   1.0000   1.0000   1.0000
     1.0000   1.0000   1.0000   1.0000   0.0000   0.0000   0.0000   0.0000
     0.0000   0.0000   0.0000   0.0000   0.0000   0.0000   0.0000   0.0000
     0.0000   0.0000   0.0000   0.0000   0.0000   0.0000   0.0000   0.0000
     0.0000   0.0000   0.0000   0.0000   0.0000   0.0000   0.0000   0.0000
     0.0000   0.0000   0.0000   0.0000   0.0000   0.0000   0.0000   0.0000
     0.0000   0.0000   0.0000   0.0000   0.0000   0.0000   0.0000   0.0000
     0.0000   0.0000   0.0000   0.0000   0.0000   0.0000   0.0000   0.0000

          k = 0.3667 0.5196 0.0000 ( 59410 PWs)   bands (ev):

   -73.4619 -73.4616 -71.3727 -71.3723 -47.5873 -47.5868 -47.2961 -47.2958
   -46.9682 -46.9677 -45.3649 -45.3643 -45.0702 -45.0699 -44.8924 -44.8918
   -18.0154 -17.9722 -17.9282 -17.8871 -17.7663 -17.6948 -17.6834 -17.6722
   -17.6441 -17.5606 -17.5154 -17.4118 -11.6706 -11.5444 -11.4798 -11.2495
    -9.9638  -9.8262  -9.8026  -9.6625  -9.2513  -9.2027  -9.0657  -9.0068
    -8.9460  -8.8229  -8.5668  -8.5459  -8.2731  -8.2447  -8.1365  -8.0125
    -7.8899  -7.6201  -7.3922  -7.3595  -7.2223  -7.1955  -7.0531  -6.9955
    -6.8692  -6.7760  -6.7112  -6.6536  -6.6034  -6.5355  -6.4827  -6.3572
    -6.0051  -5.8578  -5.7840  -5.7330  -5.2562  -5.2125  -5.1806  -5.0048
    -4.9209  -4.8883  -4.1948  -4.1751  -4.0694  -3.8569  -3.7835  -3.7549
    -2.3972  -2.3358  -2.3220  -2.3039  -1.4137  -1.1834  -1.0683  -0.8389
    -0.4220  -0.2994  -0.2285  -0.2056  -0.1101  -0.0752   0.2979   0.3367
     0.4590   0.4940   0.6277   0.7059   0.8191   0.9262   1.0258   1.0402
     1.0914   1.1069   1.2009   1.2780   1.3399   1.3502   1.4694   1.5211
     1.9612   1.9824   2.0742   2.1528   2.2419   2.2636   2.3231   2.3824

     occupation numbers 
     1.0000   1.0000   1.0000   1.0000   1.0000   1.0000   1.0000   1.0000
     1.0000   1.0000   1.0000   1.0000   1.0000   1.0000   1.0000   1.0000
     1.0000   1.0000   1.0000   1.0000   1.0000   1.0000   1.0000   1.0000
     1.0000   1.0000   1.0000   1.0000   1.0000   1.0000   1.0000   1.0000
     1.0000   1.0000   1.0000   1.0000   1.0000   1.0000   1.0000   1.0000
     1.0000   1.0000   1.0000   1.0000   1.0000   1.0000   1.0000   1.0000
     1.0000   1.0000   1.0000   1.0000   1.0000   1.0000   1.0000   1.0000
     1.0000   1.0000   1.0000   1.0000   1.0000   1.0000   1.0000   1.0000
     1.0000   1.0000   1.0000   1.0000   0.0000   0.0000   0.0000   0.0000
     0.0000   0.0000   0.0000   0.0000   0.0000   0.0000   0.0000   0.0000
     0.0000   0.0000   0.0000   0.0000   0.0000   0.0000   0.0000   0.0000
     0.0000   0.0000   0.0000   0.0000   0.0000   0.0000   0.0000   0.0000
     0.0000   0.0000   0.0000   0.0000   0.0000   0.0000   0.0000   0.0000
     0.0000   0.0000   0.0000   0.0000   0.0000   0.0000   0.0000   0.0000
     0.0000   0.0000   0.0000   0.0000   0.0000   0.0000   0.0000   0.0000

          k = 0.3625 0.5268 0.0000 ( 59394 PWs)   bands (ev):

   -73.4619 -73.4616 -71.3726 -71.3723 -47.5873 -47.5868 -47.2961 -47.2958
   -46.9682 -46.9677 -45.3649 -45.3643 -45.0702 -45.0699 -44.8924 -44.8918
   -18.0100 -17.9667 -17.9320 -17.8901 -17.7671 -17.6929 -17.6825 -17.6755
   -17.6482 -17.5576 -17.5169 -17.4131 -11.6703 -11.5411 -11.4840 -11.2500
    -9.9518  -9.8138  -9.8110  -9.6708  -9.2387  -9.1913  -9.0714  -9.0150
    -8.9492  -8.8358  -8.5657  -8.5474  -8.2760  -8.2492  -8.1393  -8.0152
    -7.8931  -7.6213  -7.3894  -7.3558  -7.2249  -7.1939  -7.0464  -6.9896
    -6.8728  -6.7676  -6.7092  -6.6522  -6.6035  -6.5423  -6.4809  -6.3590
    -6.0037  -5.8523  -5.7796  -5.7337  -5.2528  -5.2119  -5.1849  -5.0045
    -4.9201  -4.8875  -4.1940  -4.1753  -4.0728  -3.8569  -3.7829  -3.7544
    -2.3905  -2.3357  -2.3237  -2.3047  -1.4024  -1.2041  -1.0572  -0.8600
    -0.4243  -0.3024  -0.2340  -0.2141  -0.1141  -0.0841   0.2978   0.3308
     0.4585   0.4884   0.6202   0.6998   0.8307   0.9360   1.0371   1.0486
     1.0986   1.1114   1.1932   1.2667   1.3204   1.3346   1.4543   1.5129
     1.9648   1.9872   2.0767   2.1548   2.2454   2.2508   2.3211   2.3653

     occupation numbers 
     1.0000   1.0000   1.0000   1.0000   1.0000   1.0000   1.0000   1.0000
     1.0000   1.0000   1.0000   1.0000   1.0000   1.0000   1.0000   1.0000
     1.0000   1.0000   1.0000   1.0000   1.0000   1.0000   1.0000   1.0000
     1.0000   1.0000   1.0000   1.0000   1.0000   1.0000   1.0000   1.0000
     1.0000   1.0000   1.0000   1.0000   1.0000   1.0000   1.0000   1.0000
     1.0000   1.0000   1.0000   1.0000   1.0000   1.0000   1.0000   1.0000
     1.0000   1.0000   1.0000   1.0000   1.0000   1.0000   1.0000   1.0000
     1.0000   1.0000   1.0000   1.0000   1.0000   1.0000   1.0000   1.0000
     1.0000   1.0000   1.0000   1.0000   0.0000   0.0000   0.0000   0.0000
     0.0000   0.0000   0.0000   0.0000   0.0000   0.0000   0.0000   0.0000
     0.0000   0.0000   0.0000   0.0000   0.0000   0.0000   0.0000   0.0000
     0.0000   0.0000   0.0000   0.0000   0.0000   0.0000   0.0000   0.0000
     0.0000   0.0000   0.0000   0.0000   0.0000   0.0000   0.0000   0.0000
     0.0000   0.0000   0.0000   0.0000   0.0000   0.0000   0.0000   0.0000
     0.0000   0.0000   0.0000   0.0000   0.0000   0.0000   0.0000   0.0000

          k = 0.3583 0.5340 0.0000 ( 59390 PWs)   bands (ev):

   -73.4619 -73.4616 -71.3726 -71.3723 -47.5873 -47.5868 -47.2961 -47.2958
   -46.9682 -46.9677 -45.3649 -45.3643 -45.0702 -45.0699 -44.8924 -44.8918
   -18.0044 -17.9610 -17.9362 -17.8935 -17.7679 -17.6909 -17.6816 -17.6783
   -17.6522 -17.5545 -17.5186 -17.4142 -11.6701 -11.5377 -11.4883 -11.2504
    -9.9399  -9.8197  -9.8015  -9.6794  -9.2264  -9.1811  -9.0764  -9.0233
    -8.9510  -8.8483  -8.5644  -8.5487  -8.2789  -8.2530  -8.1416  -8.0181
    -7.8961  -7.6223  -7.3869  -7.3523  -7.2279  -7.1920  -7.0401  -6.9839
    -6.8768  -6.7597  -6.7078  -6.6508  -6.6039  -6.5481  -6.4797  -6.3605
    -6.0026  -5.8470  -5.7757  -5.7350  -5.2496  -5.2112  -5.1890  -5.0041
    -4.9194  -4.8868  -4.1931  -4.1758  -4.0757  -3.8568  -3.7823  -3.7540
    -2.3841  -2.3355  -2.3257  -2.3053  -1.3909  -1.2237  -1.0460  -0.8799
    -0.4266  -0.3055  -0.2385  -0.2216  -0.1171  -0.0920   0.2979   0.3254
     0.4583   0.4832   0.6136   0.6944   0.8416   0.9453   1.0475   1.0574
     1.1063   1.1154   1.1858   1.2536   1.2976   1.3249   1.4435   1.5045
     1.9683   1.9925   2.0793   2.1569   2.2349   2.2517   2.3198   2.3492

     occupation numbers 
     1.0000   1.0000   1.0000   1.0000   1.0000   1.0000   1.0000   1.0000
     1.0000   1.0000   1.0000   1.0000   1.0000   1.0000   1.0000   1.0000
     1.0000   1.0000   1.0000   1.0000   1.0000   1.0000   1.0000   1.0000
     1.0000   1.0000   1.0000   1.0000   1.0000   1.0000   1.0000   1.0000
     1.0000   1.0000   1.0000   1.0000   1.0000   1.0000   1.0000   1.0000
     1.0000   1.0000   1.0000   1.0000   1.0000   1.0000   1.0000   1.0000
     1.0000   1.0000   1.0000   1.0000   1.0000   1.0000   1.0000   1.0000
     1.0000   1.0000   1.0000   1.0000   1.0000   1.0000   1.0000   1.0000
     1.0000   1.0000   1.0000   1.0000   0.0000   0.0000   0.0000   0.0000
     0.0000   0.0000   0.0000   0.0000   0.0000   0.0000   0.0000   0.0000
     0.0000   0.0000   0.0000   0.0000   0.0000   0.0000   0.0000   0.0000
     0.0000   0.0000   0.0000   0.0000   0.0000   0.0000   0.0000   0.0000
     0.0000   0.0000   0.0000   0.0000   0.0000   0.0000   0.0000   0.0000
     0.0000   0.0000   0.0000   0.0000   0.0000   0.0000   0.0000   0.0000
     0.0000   0.0000   0.0000   0.0000   0.0000   0.0000   0.0000   0.0000

          k = 0.3542 0.5413 0.0000 ( 59408 PWs)   bands (ev):

   -73.4619 -73.4616 -71.3726 -71.3723 -47.5873 -47.5869 -47.2961 -47.2958
   -46.9682 -46.9677 -45.3649 -45.3644 -45.0702 -45.0699 -44.8924 -44.8918
   -17.9987 -17.9553 -17.9407 -17.8974 -17.7685 -17.6888 -17.6816 -17.6798
   -17.6562 -17.5514 -17.5206 -17.4152 -11.6699 -11.5342 -11.4926 -11.2507
    -9.9283  -9.8285  -9.7896  -9.6881  -9.2146  -9.1724  -9.0805  -9.0315
    -8.9512  -8.8606  -8.5631  -8.5499  -8.2818  -8.2561  -8.1435  -8.0209
    -7.8986  -7.6231  -7.3846  -7.3493  -7.2308  -7.1901  -7.0343  -6.9783
    -6.8811  -6.7527  -6.7067  -6.6494  -6.6044  -6.5531  -6.4789  -6.3616
    -6.0017  -5.8420  -5.7721  -5.7369  -5.2468  -5.2105  -5.1927  -5.0037
    -4.9188  -4.8863  -4.1921  -4.1765  -4.0782  -3.8568  -3.7818  -3.7537
    -2.3780  -2.3354  -2.3280  -2.3058  -1.3793  -1.2423  -1.0346  -0.8986
    -0.4288  -0.3086  -0.2423  -0.2279  -0.1193  -0.0989   0.2982   0.3204
     0.4584   0.4785   0.6080   0.6898   0.8517   0.9541   1.0569   1.0665
     1.1144   1.1191   1.1778   1.2386   1.2783   1.3155   1.4370   1.4959
     1.9717   1.9979   2.0818   2.1591   2.2213   2.2566   2.3181   2.3345

     occupation numbers 
     1.0000   1.0000   1.0000   1.0000   1.0000   1.0000   1.0000   1.0000
     1.0000   1.0000   1.0000   1.0000   1.0000   1.0000   1.0000   1.0000
     1.0000   1.0000   1.0000   1.0000   1.0000   1.0000   1.0000   1.0000
     1.0000   1.0000   1.0000   1.0000   1.0000   1.0000   1.0000   1.0000
     1.0000   1.0000   1.0000   1.0000   1.0000   1.0000   1.0000   1.0000
     1.0000   1.0000   1.0000   1.0000   1.0000   1.0000   1.0000   1.0000
     1.0000   1.0000   1.0000   1.0000   1.0000   1.0000   1.0000   1.0000
     1.0000   1.0000   1.0000   1.0000   1.0000   1.0000   1.0000   1.0000
     1.0000   1.0000   1.0000   1.0000   0.0000   0.0000   0.0000   0.0000
     0.0000   0.0000   0.0000   0.0000   0.0000   0.0000   0.0000   0.0000
     0.0000   0.0000   0.0000   0.0000   0.0000   0.0000   0.0000   0.0000
     0.0000   0.0000   0.0000   0.0000   0.0000   0.0000   0.0000   0.0000
     0.0000   0.0000   0.0000   0.0000   0.0000   0.0000   0.0000   0.0000
     0.0000   0.0000   0.0000   0.0000   0.0000   0.0000   0.0000   0.0000
     0.0000   0.0000   0.0000   0.0000   0.0000   0.0000   0.0000   0.0000

          k = 0.3500 0.5485 0.0000 ( 59404 PWs)   bands (ev):

   -73.4619 -73.4616 -71.3726 -71.3723 -47.5873 -47.5869 -47.2961 -47.2958
   -46.9682 -46.9677 -45.3648 -45.3644 -45.0702 -45.0699 -44.8923 -44.8919
   -17.9929 -17.9494 -17.9455 -17.9018 -17.7691 -17.6866 -17.6832 -17.6791
   -17.6602 -17.5481 -17.5228 -17.4161 -11.6697 -11.5304 -11.4969 -11.2510
    -9.9170  -9.8375  -9.7781  -9.6969  -9.2039  -9.1655  -9.0834  -9.0398
    -8.9495  -8.8725  -8.5617  -8.5510  -8.2845  -8.2586  -8.1449  -8.0235
    -7.9008  -7.6237  -7.3826  -7.3467  -7.2336  -7.1885  -7.0290  -6.9733
    -6.8853  -6.7467  -6.7060  -6.6481  -6.6052  -6.5570  -6.4786  -6.3624
    -6.0010  -5.8374  -5.7689  -5.7393  -5.2444  -5.2098  -5.1961  -5.0033
    -4.9184  -4.8858  -4.1910  -4.1773  -4.0802  -3.8568  -3.7815  -3.7534
    -2.3723  -2.3354  -2.3305  -2.3062  -1.3676  -1.2596  -1.0230  -0.9161
    -0.4310  -0.3115  -0.2454  -0.2330  -0.1209  -0.1046   0.2988   0.3160
     0.4586   0.4744   0.6034   0.6861   0.8607   0.9620   1.0650   1.0759
     1.1221   1.1236   1.1681   1.2221   1.2645   1.3060   1.4345   1.4873
     1.9748   2.0034   2.0840   2.1614   2.2087   2.2618   2.3144   2.3230

     occupation numbers 
     1.0000   1.0000   1.0000   1.0000   1.0000   1.0000   1.0000   1.0000
     1.0000   1.0000   1.0000   1.0000   1.0000   1.0000   1.0000   1.0000
     1.0000   1.0000   1.0000   1.0000   1.0000   1.0000   1.0000   1.0000
     1.0000   1.0000   1.0000   1.0000   1.0000   1.0000   1.0000   1.0000
     1.0000   1.0000   1.0000   1.0000   1.0000   1.0000   1.0000   1.0000
     1.0000   1.0000   1.0000   1.0000   1.0000   1.0000   1.0000   1.0000
     1.0000   1.0000   1.0000   1.0000   1.0000   1.0000   1.0000   1.0000
     1.0000   1.0000   1.0000   1.0000   1.0000   1.0000   1.0000   1.0000
     1.0000   1.0000   1.0000   1.0000   0.0000   0.0000   0.0000   0.0000
     0.0000   0.0000   0.0000   0.0000   0.0000   0.0000   0.0000   0.0000
     0.0000   0.0000   0.0000   0.0000   0.0000   0.0000   0.0000   0.0000
     0.0000   0.0000   0.0000   0.0000   0.0000   0.0000   0.0000   0.0000
     0.0000   0.0000   0.0000   0.0000   0.0000   0.0000   0.0000   0.0000
     0.0000   0.0000   0.0000   0.0000   0.0000   0.0000   0.0000   0.0000
     0.0000   0.0000   0.0000   0.0000   0.0000   0.0000   0.0000   0.0000

          k = 0.3458 0.5557 0.0000 ( 59408 PWs)   bands (ev):

   -73.4619 -73.4616 -71.3726 -71.3723 -47.5872 -47.5869 -47.2961 -47.2958
   -46.9681 -46.9678 -45.3648 -45.3644 -45.0702 -45.0699 -44.8923 -44.8919
   -17.9870 -17.9508 -17.9432 -17.9067 -17.7695 -17.6852 -17.6838 -17.6781
   -17.6641 -17.5449 -17.5254 -17.4167 -11.6696 -11.5266 -11.5013 -11.2512
    -9.9061  -9.8465  -9.7671  -9.7058  -9.1945  -9.1603  -9.0845  -9.0480
    -8.9459  -8.8840  -8.5603  -8.5520  -8.2869  -8.2604  -8.1458  -8.0259
    -7.9025  -7.6241  -7.3810  -7.3447  -7.2360  -7.1871  -7.0244  -6.9690
    -6.8893  -6.7420  -6.7053  -6.6468  -6.6060  -6.5600  -6.4786  -6.3629
    -6.0004  -5.8335  -5.7657  -5.7421  -5.2423  -5.2091  -5.1989  -5.0030
    -4.9180  -4.8854  -4.1898  -4.1784  -4.0817  -3.8568  -3.7812  -3.7531
    -2.3671  -2.3356  -2.3329  -2.3066  -1.3557  -1.2759  -1.0113  -0.9324
    -0.4328  -0.3139  -0.2479  -0.2368  -0.1221  -0.1090   0.2996   0.3122
     0.4591   0.4709   0.5999   0.6832   0.8685   0.9688   1.0717   1.0855
     1.1263   1.1318   1.1559   1.2048   1.2572   1.2965   1.4354   1.4785
     1.9776   2.0085   2.0856   2.1637   2.1979   2.2670   2.3061   2.3176

     occupation numbers 
     1.0000   1.0000   1.0000   1.0000   1.0000   1.0000   1.0000   1.0000
     1.0000   1.0000   1.0000   1.0000   1.0000   1.0000   1.0000   1.0000
     1.0000   1.0000   1.0000   1.0000   1.0000   1.0000   1.0000   1.0000
     1.0000   1.0000   1.0000   1.0000   1.0000   1.0000   1.0000   1.0000
     1.0000   1.0000   1.0000   1.0000   1.0000   1.0000   1.0000   1.0000
     1.0000   1.0000   1.0000   1.0000   1.0000   1.0000   1.0000   1.0000
     1.0000   1.0000   1.0000   1.0000   1.0000   1.0000   1.0000   1.0000
     1.0000   1.0000   1.0000   1.0000   1.0000   1.0000   1.0000   1.0000
     1.0000   1.0000   1.0000   1.0000   0.0000   0.0000   0.0000   0.0000
     0.0000   0.0000   0.0000   0.0000   0.0000   0.0000   0.0000   0.0000
     0.0000   0.0000   0.0000   0.0000   0.0000   0.0000   0.0000   0.0000
     0.0000   0.0000   0.0000   0.0000   0.0000   0.0000   0.0000   0.0000
     0.0000   0.0000   0.0000   0.0000   0.0000   0.0000   0.0000   0.0000
     0.0000   0.0000   0.0000   0.0000   0.0000   0.0000   0.0000   0.0000
     0.0000   0.0000   0.0000   0.0000   0.0000   0.0000   0.0000   0.0000

          k = 0.3417 0.5629 0.0000 ( 59422 PWs)   bands (ev):

   -73.4619 -73.4616 -71.3726 -71.3723 -47.5872 -47.5869 -47.2961 -47.2958
   -46.9681 -46.9678 -45.3648 -45.3644 -45.0702 -45.0699 -44.8923 -44.8919
   -17.9810 -17.9563 -17.9371 -17.9121 -17.7698 -17.6860 -17.6817 -17.6770
   -17.6680 -17.5415 -17.5282 -17.4171 -11.6695 -11.5226 -11.5056 -11.2514
    -9.8958  -9.8554  -9.7567  -9.7146  -9.1874  -9.1569  -9.0832  -9.0562
    -8.9405  -8.8949  -8.5590  -8.5530  -8.2887  -8.2616  -8.1464  -8.0277
    -7.9038  -7.6244  -7.3798  -7.3432  -7.2378  -7.1860  -7.0208  -6.9659
    -6.8925  -6.7388  -6.7048  -6.6458  -6.6067  -6.5619  -6.4788  -6.3632
    -6.0001  -5.8304  -5.7627  -5.7452  -5.2408  -5.2087  -5.2011  -5.0028
    -4.9177  -4.8851  -4.1886  -4.1796  -4.0828  -3.8568  -3.7810  -3.7529
    -2.3626  -2.3369  -2.3342  -2.3068  -1.3439  -1.2909  -0.9997  -0.9474
    -0.4342  -0.3158  -0.2498  -0.2394  -0.1231  -0.1120   0.3005   0.3090
     0.4596   0.4681   0.5974   0.6812   0.8745   0.9742   1.0771   1.0954
     1.1303   1.1398   1.1426   1.1873   1.2561   1.2870   1.4391   1.4698
     1.9797   2.0130   2.0866   2.1657   2.1896   2.2717   2.2979   2.3145

     occupation numbers 
     1.0000   1.0000   1.0000   1.0000   1.0000   1.0000   1.0000   1.0000
     1.0000   1.0000   1.0000   1.0000   1.0000   1.0000   1.0000   1.0000
     1.0000   1.0000   1.0000   1.0000   1.0000   1.0000   1.0000   1.0000
     1.0000   1.0000   1.0000   1.0000   1.0000   1.0000   1.0000   1.0000
     1.0000   1.0000   1.0000   1.0000   1.0000   1.0000   1.0000   1.0000
     1.0000   1.0000   1.0000   1.0000   1.0000   1.0000   1.0000   1.0000
     1.0000   1.0000   1.0000   1.0000   1.0000   1.0000   1.0000   1.0000
     1.0000   1.0000   1.0000   1.0000   1.0000   1.0000   1.0000   1.0000
     1.0000   1.0000   1.0000   1.0000   0.0000   0.0000   0.0000   0.0000
     0.0000   0.0000   0.0000   0.0000   0.0000   0.0000   0.0000   0.0000
     0.0000   0.0000   0.0000   0.0000   0.0000   0.0000   0.0000   0.0000
     0.0000   0.0000   0.0000   0.0000   0.0000   0.0000   0.0000   0.0000
     0.0000   0.0000   0.0000   0.0000   0.0000   0.0000   0.0000   0.0000
     0.0000   0.0000   0.0000   0.0000   0.0000   0.0000   0.0000   0.0000
     0.0000   0.0000   0.0000   0.0000   0.0000   0.0000   0.0000   0.0000

          k = 0.3375 0.5701 0.0000 ( 59420 PWs)   bands (ev):

   -73.4619 -73.4616 -71.3726 -71.3723 -47.5872 -47.5869 -47.2961 -47.2958
   -46.9681 -46.9678 -45.3648 -45.3644 -45.0702 -45.0699 -44.8923 -44.8919
   -17.9748 -17.9622 -17.9308 -17.9179 -17.7700 -17.6866 -17.6793 -17.6759
   -17.6717 -17.5381 -17.5312 -17.4174 -11.6694 -11.5185 -11.5099 -11.2515
    -9.8864  -9.8640  -9.7477  -9.7227  -9.1831  -9.1550  -9.0793  -9.0643
    -8.9341  -8.9044  -8.5579  -8.5538  -8.2899  -8.2624  -8.1466  -8.0290
    -7.9046  -7.6246  -7.3790  -7.3424  -7.2389  -7.1854  -7.0183  -6.9640
    -6.8946  -6.7370  -6.7043  -6.6451  -6.6072  -6.5630  -6.4790  -6.3633
    -5.9998  -5.8284  -5.7598  -5.7484  -5.2398  -5.2084  -5.2023  -5.0026
    -4.9176  -4.8849  -4.1876  -4.1806  -4.0834  -3.8568  -3.7809  -3.7528
    -2.3594  -2.3386  -2.3345  -2.3070  -1.3323  -1.3044  -0.9883  -0.9608
    -0.4351  -0.3170  -0.2510  -0.2408  -0.1238  -0.1136   0.3015   0.3067
     0.4601   0.4663   0.5959   0.6801   0.8784   0.9777   1.0811   1.1052
     1.1265   1.1355   1.1495   1.1710   1.2598   1.2777   1.4449   1.4612
     1.9811   2.0161   2.0870   2.1668   2.1845   2.2747   2.2933   2.3118

     occupation numbers 
     1.0000   1.0000   1.0000   1.0000   1.0000   1.0000   1.0000   1.0000
     1.0000   1.0000   1.0000   1.0000   1.0000   1.0000   1.0000   1.0000
     1.0000   1.0000   1.0000   1.0000   1.0000   1.0000   1.0000   1.0000
     1.0000   1.0000   1.0000   1.0000   1.0000   1.0000   1.0000   1.0000
     1.0000   1.0000   1.0000   1.0000   1.0000   1.0000   1.0000   1.0000
     1.0000   1.0000   1.0000   1.0000   1.0000   1.0000   1.0000   1.0000
     1.0000   1.0000   1.0000   1.0000   1.0000   1.0000   1.0000   1.0000
     1.0000   1.0000   1.0000   1.0000   1.0000   1.0000   1.0000   1.0000
     1.0000   1.0000   1.0000   1.0000   0.0000   0.0000   0.0000   0.0000
     0.0000   0.0000   0.0000   0.0000   0.0000   0.0000   0.0000   0.0000
     0.0000   0.0000   0.0000   0.0000   0.0000   0.0000   0.0000   0.0000
     0.0000   0.0000   0.0000   0.0000   0.0000   0.0000   0.0000   0.0000
     0.0000   0.0000   0.0000   0.0000   0.0000   0.0000   0.0000   0.0000
     0.0000   0.0000   0.0000   0.0000   0.0000   0.0000   0.0000   0.0000
     0.0000   0.0000   0.0000   0.0000   0.0000   0.0000   0.0000   0.0000

          k = 0.3333 0.5774 0.0000 ( 59388 PWs)   bands (ev):

   -73.4619 -73.4616 -71.3726 -71.3723 -47.5872 -47.5869 -47.2961 -47.2958
   -46.9681 -46.9678 -45.3648 -45.3644 -45.0702 -45.0699 -44.8923 -44.8919
   -17.9686 -17.9683 -17.9246 -17.9239 -17.7701 -17.6868 -17.6776 -17.6754
   -17.6740 -17.5347 -17.5345 -17.4175 -11.6694 -11.5148 -11.5137 -11.2515
    -9.8808  -9.8693  -9.7429  -9.7272  -9.1817  -9.1544  -9.0735  -9.0715
    -8.9302  -8.9094  -8.5574  -8.5543  -8.2903  -8.2626  -8.1467  -8.0295
    -7.9048  -7.6246  -7.3787  -7.3421  -7.2393  -7.1851  -7.0173  -6.9635
    -6.8953  -6.7364  -6.7041  -6.6448  -6.6074  -6.5634  -6.4792  -6.3633
    -5.9998  -5.8277  -5.7581  -5.7502  -5.2394  -5.2084  -5.2027  -5.0025
    -4.9175  -4.8849  -4.1872  -4.1810  -4.0836  -3.8568  -3.7808  -3.7528
    -2.3582  -2.3394  -2.3346  -2.3071  -1.3246  -1.3127  -0.9807  -0.9690
    -0.4354  -0.3174  -0.2514  -0.2412  -0.1241  -0.1141   0.3021   0.3057
     0.4603   0.4656   0.5954   0.6797   0.8798   0.9789   1.0829   1.1139
     1.1158   1.1380   1.1572   1.1593   1.2649   1.2710   1.4511   1.4542
     1.9816   2.0172   2.0871   2.1671   2.1830   2.2753   2.2926   2.3105

     occupation numbers 
     1.0000   1.0000   1.0000   1.0000   1.0000   1.0000   1.0000   1.0000
     1.0000   1.0000   1.0000   1.0000   1.0000   1.0000   1.0000   1.0000
     1.0000   1.0000   1.0000   1.0000   1.0000   1.0000   1.0000   1.0000
     1.0000   1.0000   1.0000   1.0000   1.0000   1.0000   1.0000   1.0000
     1.0000   1.0000   1.0000   1.0000   1.0000   1.0000   1.0000   1.0000
     1.0000   1.0000   1.0000   1.0000   1.0000   1.0000   1.0000   1.0000
     1.0000   1.0000   1.0000   1.0000   1.0000   1.0000   1.0000   1.0000
     1.0000   1.0000   1.0000   1.0000   1.0000   1.0000   1.0000   1.0000
     1.0000   1.0000   1.0000   1.0000   0.0000   0.0000   0.0000   0.0000
     0.0000   0.0000   0.0000   0.0000   0.0000   0.0000   0.0000   0.0000
     0.0000   0.0000   0.0000   0.0000   0.0000   0.0000   0.0000   0.0000
     0.0000   0.0000   0.0000   0.0000   0.0000   0.0000   0.0000   0.0000
     0.0000   0.0000   0.0000   0.0000   0.0000   0.0000   0.0000   0.0000
     0.0000   0.0000   0.0000   0.0000   0.0000   0.0000   0.0000   0.0000
     0.0000   0.0000   0.0000   0.0000   0.0000   0.0000   0.0000   0.0000

          k = 0.3250 0.5629 0.0000 ( 59414 PWs)   bands (ev):

   -73.4619 -73.4616 -71.3726 -71.3723 -47.5872 -47.5869 -47.2961 -47.2958
   -46.9681 -46.9678 -45.3648 -45.3644 -45.0702 -45.0699 -44.8923 -44.8919
   -17.9818 -17.9555 -17.9381 -17.9109 -17.7698 -17.6861 -17.6834 -17.6724
   -17.6707 -17.5422 -17.5275 -17.4172 -11.6695 -11.5228 -11.5054 -11.2514
    -9.8950  -9.8563  -9.7559  -9.7155  -9.1860  -9.1568  -9.0885  -9.0521
    -8.9431  -8.8929  -8.5587  -8.5532  -8.2887  -8.2615  -8.1468  -8.0273
    -7.9037  -7.6244  -7.3800  -7.3430  -7.2378  -7.1861  -7.0220  -6.9644
    -6.8930  -6.7380  -6.7052  -6.6457  -6.6069  -6.5624  -6.4783  -6.3633
    -6.0000  -5.8306  -5.7641  -5.7435  -5.2407  -5.2079  -5.2019  -5.0028
    -4.9177  -4.8851  -4.1889  -4.1792  -4.0829  -3.8568  -3.7810  -3.7529
    -2.3624  -2.3374  -2.3341  -2.3067  -1.3420  -1.2928  -0.9976  -0.9495
    -0.4340  -0.3156  -0.2497  -0.2395  -0.1226  -0.1126   0.3013   0.3083
     0.4603   0.4675   0.5973   0.6810   0.8737   0.9734   1.0731   1.1104
     1.1225   1.1333   1.1620   1.1749   1.2513   1.2903   1.4369   1.4715
     1.9794   2.0123   2.0866   2.1688   2.1869   2.2759   2.2905   2.3184

     occupation numbers 
     1.0000   1.0000   1.0000   1.0000   1.0000   1.0000   1.0000   1.0000
     1.0000   1.0000   1.0000   1.0000   1.0000   1.0000   1.0000   1.0000
     1.0000   1.0000   1.0000   1.0000   1.0000   1.0000   1.0000   1.0000
     1.0000   1.0000   1.0000   1.0000   1.0000   1.0000   1.0000   1.0000
     1.0000   1.0000   1.0000   1.0000   1.0000   1.0000   1.0000   1.0000
     1.0000   1.0000   1.0000   1.0000   1.0000   1.0000   1.0000   1.0000
     1.0000   1.0000   1.0000   1.0000   1.0000   1.0000   1.0000   1.0000
     1.0000   1.0000   1.0000   1.0000   1.0000   1.0000   1.0000   1.0000
     1.0000   1.0000   1.0000   1.0000   0.0000   0.0000   0.0000   0.0000
     0.0000   0.0000   0.0000   0.0000   0.0000   0.0000   0.0000   0.0000
     0.0000   0.0000   0.0000   0.0000   0.0000   0.0000   0.0000   0.0000
     0.0000   0.0000   0.0000   0.0000   0.0000   0.0000   0.0000   0.0000
     0.0000   0.0000   0.0000   0.0000   0.0000   0.0000   0.0000   0.0000
     0.0000   0.0000   0.0000   0.0000   0.0000   0.0000   0.0000   0.0000
     0.0000   0.0000   0.0000   0.0000   0.0000   0.0000   0.0000   0.0000

          k = 0.3167 0.5485 0.0000 ( 59422 PWs)   bands (ev):

   -73.4619 -73.4616 -71.3726 -71.3723 -47.5873 -47.5869 -47.2961 -47.2958
   -46.9682 -46.9677 -45.3648 -45.3644 -45.0702 -45.0699 -44.8923 -44.8919
   -17.9961 -17.9534 -17.9421 -17.8973 -17.7693 -17.6907 -17.6835 -17.6699
   -17.6653 -17.5506 -17.5203 -17.4162 -11.6696 -11.5312 -11.4961 -11.2511
    -9.9137  -9.8411  -9.7746  -9.7007  -9.1957  -9.1633  -9.1040  -9.0275
    -8.9602  -8.8658  -8.5605  -8.5513  -8.2847  -8.2569  -8.1478  -8.0202
    -7.9003  -7.6240  -7.3845  -7.3449  -7.2335  -7.1893  -7.0365  -6.9648
    -6.8881  -6.7414  -6.7090  -6.6472  -6.6063  -6.5605  -6.4748  -6.3637
    -6.0009  -5.8393  -5.7739  -5.7317  -5.2439  -5.2059  -5.2003  -5.0036
    -4.9184  -4.8858  -4.1921  -4.1754  -4.0809  -3.8567  -3.7814  -3.7534
    -2.3712  -2.3369  -2.3314  -2.3050  -1.3602  -1.2672  -1.0149  -0.9246
    -0.4296  -0.3101  -0.2457  -0.2335  -0.1185  -0.1077   0.3021   0.3132
     0.4619   0.4714   0.6026   0.6842   0.8557   0.9575   1.0582   1.1075
     1.1235   1.1444   1.1801   1.1892   1.2413   1.3178   1.4243   1.4936
     1.9726   1.9995   2.0831   2.1767   2.1971   2.2676   2.2999   2.3359

     occupation numbers 
     1.0000   1.0000   1.0000   1.0000   1.0000   1.0000   1.0000   1.0000
     1.0000   1.0000   1.0000   1.0000   1.0000   1.0000   1.0000   1.0000
     1.0000   1.0000   1.0000   1.0000   1.0000   1.0000   1.0000   1.0000
     1.0000   1.0000   1.0000   1.0000   1.0000   1.0000   1.0000   1.0000
     1.0000   1.0000   1.0000   1.0000   1.0000   1.0000   1.0000   1.0000
     1.0000   1.0000   1.0000   1.0000   1.0000   1.0000   1.0000   1.0000
     1.0000   1.0000   1.0000   1.0000   1.0000   1.0000   1.0000   1.0000
     1.0000   1.0000   1.0000   1.0000   1.0000   1.0000   1.0000   1.0000
     1.0000   1.0000   1.0000   1.0000   0.0000   0.0000   0.0000   0.0000
     0.0000   0.0000   0.0000   0.0000   0.0000   0.0000   0.0000   0.0000
     0.0000   0.0000   0.0000   0.0000   0.0000   0.0000   0.0000   0.0000
     0.0000   0.0000   0.0000   0.0000   0.0000   0.0000   0.0000   0.0000
     0.0000   0.0000   0.0000   0.0000   0.0000   0.0000   0.0000   0.0000
     0.0000   0.0000   0.0000   0.0000   0.0000   0.0000   0.0000   0.0000
     0.0000   0.0000   0.0000   0.0000   0.0000   0.0000   0.0000   0.0000

          k = 0.3083 0.5340 0.0000 ( 59400 PWs)   bands (ev):

   -73.4619 -73.4616 -71.3726 -71.3723 -47.5873 -47.5868 -47.2961 -47.2958
   -46.9682 -46.9677 -45.3649 -45.3643 -45.0702 -45.0699 -44.8924 -44.8918
   -18.0115 -17.9699 -17.9284 -17.8832 -17.7685 -17.6972 -17.6799 -17.6675
   -17.6596 -17.5598 -17.5129 -17.4146 -11.6698 -11.5394 -11.4864 -11.2505
    -9.9326  -9.8279  -9.7939  -9.6880  -9.2079  -9.1727  -9.1190  -9.0101
    -8.9674  -8.8370  -8.5611  -8.5484  -8.2803  -8.2471  -8.1501  -8.0081
    -7.8943  -7.6233  -7.3924  -7.3469  -7.2272  -7.1948  -7.0587  -6.9649
    -6.8834  -6.7456  -6.7153  -6.6479  -6.6070  -6.5593  -6.4678  -6.3647
    -6.0023  -5.8526  -5.7853  -5.7175  -5.2480  -5.2029  -5.1985  -5.0051
    -4.9195  -4.8870  -4.1952  -4.1709  -4.0779  -3.8567  -3.7822  -3.7542
    -2.3817  -2.3383  -2.3291  -2.3017  -1.3746  -1.2407  -1.0281  -0.8989
    -0.4220  -0.3007  -0.2414  -0.2215  -0.1143  -0.0970   0.3057   0.3191
     0.4663   0.4762   0.6108   0.6881   0.8292   0.9356   1.0482   1.1011
     1.1416   1.1453   1.1993   1.2023   1.2428   1.3485   1.4165   1.5179
     1.9614   1.9831   2.0749   2.1885   2.2145   2.2529   2.3231   2.3573

     occupation numbers 
     1.0000   1.0000   1.0000   1.0000   1.0000   1.0000   1.0000   1.0000
     1.0000   1.0000   1.0000   1.0000   1.0000   1.0000   1.0000   1.0000
     1.0000   1.0000   1.0000   1.0000   1.0000   1.0000   1.0000   1.0000
     1.0000   1.0000   1.0000   1.0000   1.0000   1.0000   1.0000   1.0000
     1.0000   1.0000   1.0000   1.0000   1.0000   1.0000   1.0000   1.0000
     1.0000   1.0000   1.0000   1.0000   1.0000   1.0000   1.0000   1.0000
     1.0000   1.0000   1.0000   1.0000   1.0000   1.0000   1.0000   1.0000
     1.0000   1.0000   1.0000   1.0000   1.0000   1.0000   1.0000   1.0000
     1.0000   1.0000   1.0000   1.0000   0.0000   0.0000   0.0000   0.0000
     0.0000   0.0000   0.0000   0.0000   0.0000   0.0000   0.0000   0.0000
     0.0000   0.0000   0.0000   0.0000   0.0000   0.0000   0.0000   0.0000
     0.0000   0.0000   0.0000   0.0000   0.0000   0.0000   0.0000   0.0000
     0.0000   0.0000   0.0000   0.0000   0.0000   0.0000   0.0000   0.0000
     0.0000   0.0000   0.0000   0.0000   0.0000   0.0000   0.0000   0.0000
     0.0000   0.0000   0.0000   0.0000   0.0000   0.0000   0.0000   0.0000

          k = 0.3000 0.5196 0.0000 ( 59414 PWs)   bands (ev):

   -73.4619 -73.4616 -71.3727 -71.3723 -47.5874 -47.5868 -47.2961 -47.2958
   -46.9683 -46.9676 -45.3650 -45.3643 -45.0702 -45.0699 -44.8925 -44.8917
   -18.0276 -17.9873 -17.9144 -17.8687 -17.7678 -17.7032 -17.6752 -17.6649
   -17.6536 -17.5698 -17.5054 -17.4126 -11.6701 -11.5473 -11.4763 -11.2499
    -9.9515  -9.8171  -9.8130  -9.6776  -9.2210  -9.1840  -9.1332  -9.0166
    -8.9496  -8.8104  -8.5594  -8.5422  -8.2771  -8.2313  -8.1532  -7.9917
    -7.8854  -7.6226  -7.4033  -7.3488  -7.2206  -7.2021  -7.0852  -6.9665
    -6.8801  -6.7504  -6.7236  -6.6462  -6.6094  -6.5595  -6.4573  -6.3662
    -6.0043  -5.8691  -5.7983  -5.7019  -5.2524  -5.1995  -5.1964  -5.0071
    -4.9210  -4.8887  -4.1978  -4.1659  -4.0742  -3.8565  -3.7833  -3.7553
    -2.3933  -2.3410  -2.3281  -2.2970  -1.3852  -1.2134  -1.0374  -0.8724
    -0.4112  -0.2876  -0.2374  -0.2035  -0.1112  -0.0800   0.3122   0.3259
     0.4734   0.4817   0.6208   0.6906   0.7998   0.9141   1.0423   1.1002
     1.1345   1.1645   1.2043   1.2264   1.2557   1.3813   1.4151   1.5440
     1.9465   1.9667   2.0639   2.1916   2.2385   2.2474   2.3531   2.3813

     occupation numbers 
     1.0000   1.0000   1.0000   1.0000   1.0000   1.0000   1.0000   1.0000
     1.0000   1.0000   1.0000   1.0000   1.0000   1.0000   1.0000   1.0000
     1.0000   1.0000   1.0000   1.0000   1.0000   1.0000   1.0000   1.0000
     1.0000   1.0000   1.0000   1.0000   1.0000   1.0000   1.0000   1.0000
     1.0000   1.0000   1.0000   1.0000   1.0000   1.0000   1.0000   1.0000
     1.0000   1.0000   1.0000   1.0000   1.0000   1.0000   1.0000   1.0000
     1.0000   1.0000   1.0000   1.0000   1.0000   1.0000   1.0000   1.0000
     1.0000   1.0000   1.0000   1.0000   1.0000   1.0000   1.0000   1.0000
     1.0000   1.0000   1.0000   1.0000   0.0000   0.0000   0.0000   0.0000
     0.0000   0.0000   0.0000   0.0000   0.0000   0.0000   0.0000   0.0000
     0.0000   0.0000   0.0000   0.0000   0.0000   0.0000   0.0000   0.0000
     0.0000   0.0000   0.0000   0.0000   0.0000   0.0000   0.0000   0.0000
     0.0000   0.0000   0.0000   0.0000   0.0000   0.0000   0.0000   0.0000
     0.0000   0.0000   0.0000   0.0000   0.0000   0.0000   0.0000   0.0000
     0.0000   0.0000   0.0000   0.0000   0.0000   0.0000   0.0000   0.0000

          k = 0.2917 0.5052 0.0000 ( 59446 PWs)   bands (ev):

   -73.4619 -73.4616 -71.3727 -71.3723 -47.5874 -47.5867 -47.2962 -47.2958
   -46.9683 -46.9676 -45.3650 -45.3642 -45.0702 -45.0699 -44.8926 -44.8916
   -18.0444 -18.0055 -17.9001 -17.8539 -17.7673 -17.7084 -17.6696 -17.6624
   -17.6476 -17.5804 -17.4978 -17.4101 -11.6703 -11.5549 -11.4659 -11.2491
    -9.9701  -9.8325  -9.8082  -9.6695  -9.2343  -9.1965  -9.1466  -9.0331
    -8.9226  -8.7894  -8.5548  -8.5292  -8.2749  -8.2123  -8.1547  -7.9727
    -7.8734  -7.6222  -7.4164  -7.3509  -7.2213  -7.2045  -7.1137  -6.9710
    -6.8787  -6.7569  -6.7326  -6.6413  -6.6135  -6.5609  -6.4450  -6.3680
    -6.0072  -5.8876  -5.8127  -5.6852  -5.2566  -5.1968  -5.1934  -5.0098
    -4.9230  -4.8909  -4.1996  -4.1607  -4.0698  -3.8563  -3.7847  -3.7568
    -2.4056  -2.3449  -2.3279  -2.2918  -1.3923  -1.1853  -1.0430  -0.8452
    -0.3972  -0.2711  -0.2338  -0.1800  -0.1091  -0.0571   0.3216   0.3333
     0.4831   0.4879   0.6305   0.6894   0.7729   0.8989   1.0388   1.1026
     1.1186   1.1894   1.2032   1.2521   1.2747   1.4150   1.4211   1.5715
     1.9286   1.9526   2.0530   2.1751   2.2567   2.2723   2.3868   2.4075

     occupation numbers 
     1.0000   1.0000   1.0000   1.0000   1.0000   1.0000   1.0000   1.0000
     1.0000   1.0000   1.0000   1.0000   1.0000   1.0000   1.0000   1.0000
     1.0000   1.0000   1.0000   1.0000   1.0000   1.0000   1.0000   1.0000
     1.0000   1.0000   1.0000   1.0000   1.0000   1.0000   1.0000   1.0000
     1.0000   1.0000   1.0000   1.0000   1.0000   1.0000   1.0000   1.0000
     1.0000   1.0000   1.0000   1.0000   1.0000   1.0000   1.0000   1.0000
     1.0000   1.0000   1.0000   1.0000   1.0000   1.0000   1.0000   1.0000
     1.0000   1.0000   1.0000   1.0000   1.0000   1.0000   1.0000   1.0000
     1.0000   1.0000   1.0000   1.0000   0.0000   0.0000   0.0000   0.0000
     0.0000   0.0000   0.0000   0.0000   0.0000   0.0000   0.0000   0.0000
     0.0000   0.0000   0.0000   0.0000   0.0000   0.0000   0.0000   0.0000
     0.0000   0.0000   0.0000   0.0000   0.0000   0.0000   0.0000   0.0000
     0.0000   0.0000   0.0000   0.0000   0.0000   0.0000   0.0000   0.0000
     0.0000   0.0000   0.0000   0.0000   0.0000   0.0000   0.0000   0.0000
     0.0000   0.0000   0.0000   0.0000   0.0000   0.0000   0.0000   0.0000

          k = 0.2833 0.4907 0.0000 ( 59438 PWs)   bands (ev):

   -73.4619 -73.4616 -71.3727 -71.3723 -47.5875 -47.5867 -47.2962 -47.2958
   -46.9684 -46.9675 -45.3651 -45.3641 -45.0703 -45.0698 -44.8926 -44.8916
   -18.0618 -18.0243 -17.8855 -17.8388 -17.7675 -17.7124 -17.6632 -17.6596
   -17.6414 -17.5915 -17.4901 -17.4073 -11.6706 -11.5621 -11.4552 -11.2482
    -9.9883  -9.8514  -9.8016  -9.6637  -9.2476  -9.2098  -9.1591  -9.0513
    -8.8966  -8.7764  -8.5463  -8.5066  -8.2733  -8.1970  -8.1484  -7.9526
    -7.8578  -7.6223  -7.4310  -7.3534  -7.2345  -7.1979  -7.1419  -6.9788
    -6.8793  -6.7678  -6.7390  -6.6347  -6.6182  -6.5624  -6.4333  -6.3686
    -6.0111  -5.9068  -5.8287  -5.6679  -5.2605  -5.1949  -5.1895  -5.0129
    -4.9255  -4.8935  -4.2005  -4.1552  -4.0649  -3.8561  -3.7864  -3.7586
    -2.4183  -2.3499  -2.3279  -2.2865  -1.3963  -1.1562  -1.0453  -0.8171
    -0.3803  -0.2515  -0.2309  -0.1516  -0.1080  -0.0291   0.3341   0.3411
     0.4913   0.4984   0.6358   0.6833   0.7548   0.8937   1.0369   1.1010
     1.1072   1.1973   1.2157   1.2786   1.2956   1.4322   1.4507   1.6001
     1.9088   1.9419   2.0440   2.1486   2.2787   2.3067   2.4223   2.4361

     occupation numbers 
     1.0000   1.0000   1.0000   1.0000   1.0000   1.0000   1.0000   1.0000
     1.0000   1.0000   1.0000   1.0000   1.0000   1.0000   1.0000   1.0000
     1.0000   1.0000   1.0000   1.0000   1.0000   1.0000   1.0000   1.0000
     1.0000   1.0000   1.0000   1.0000   1.0000   1.0000   1.0000   1.0000
     1.0000   1.0000   1.0000   1.0000   1.0000   1.0000   1.0000   1.0000
     1.0000   1.0000   1.0000   1.0000   1.0000   1.0000   1.0000   1.0000
     1.0000   1.0000   1.0000   1.0000   1.0000   1.0000   1.0000   1.0000
     1.0000   1.0000   1.0000   1.0000   1.0000   1.0000   1.0000   1.0000
     1.0000   1.0000   1.0000   1.0000   0.0000   0.0000   0.0000   0.0000
     0.0000   0.0000   0.0000   0.0000   0.0000   0.0000   0.0000   0.0000
     0.0000   0.0000   0.0000   0.0000   0.0000   0.0000   0.0000   0.0000
     0.0000   0.0000   0.0000   0.0000   0.0000   0.0000   0.0000   0.0000
     0.0000   0.0000   0.0000   0.0000   0.0000   0.0000   0.0000   0.0000
     0.0000   0.0000   0.0000   0.0000   0.0000   0.0000   0.0000   0.0000
     0.0000   0.0000   0.0000   0.0000   0.0000   0.0000   0.0000   0.0000

          k = 0.2750 0.4763 0.0000 ( 59424 PWs)   bands (ev):

   -73.4619 -73.4616 -71.3727 -71.3723 -47.5875 -47.5866 -47.2962 -47.2958
   -46.9685 -46.9674 -45.3652 -45.3641 -45.0703 -45.0698 -44.8927 -44.8915
   -18.0797 -18.0435 -17.8707 -17.8234 -17.7686 -17.7150 -17.6578 -17.6554
   -17.6353 -17.6030 -17.4823 -17.4043 -11.6707 -11.5689 -11.4444 -11.2473
   -10.0060  -9.8699  -9.7969  -9.6599  -9.2606  -9.2234  -9.1708  -9.0696
    -8.8749  -8.7718  -8.5326  -8.4739  -8.2721  -8.1933  -8.1273  -7.9327
    -7.8387  -7.6234  -7.4464  -7.3567  -7.2530  -7.1942  -7.1641  -6.9897
    -6.8822  -6.7843  -6.7413  -6.6348  -6.6156  -6.5629  -6.4257  -6.3655
    -6.0168  -5.9255  -5.8459  -5.6501  -5.2641  -5.1933  -5.1852  -5.0164
    -4.9284  -4.8966  -4.2003  -4.1496  -4.0597  -3.8557  -3.7885  -3.7606
    -2.4312  -2.3558  -2.3279  -2.2815  -1.3974  -1.1264  -1.0447  -0.7882
    -0.3607  -0.2296  -0.2286  -0.1190  -0.1080   0.0035   0.3479   0.3504
     0.4957   0.5143   0.6322   0.6730   0.7519   0.8994   1.0363   1.0843
     1.1131   1.1884   1.2426   1.3055   1.3162   1.4484   1.4864   1.6297
     1.8892   1.9349   2.0379   2.1189   2.3041   2.3428   2.4568   2.4675

     occupation numbers 
     1.0000   1.0000   1.0000   1.0000   1.0000   1.0000   1.0000   1.0000
     1.0000   1.0000   1.0000   1.0000   1.0000   1.0000   1.0000   1.0000
     1.0000   1.0000   1.0000   1.0000   1.0000   1.0000   1.0000   1.0000
     1.0000   1.0000   1.0000   1.0000   1.0000   1.0000   1.0000   1.0000
     1.0000   1.0000   1.0000   1.0000   1.0000   1.0000   1.0000   1.0000
     1.0000   1.0000   1.0000   1.0000   1.0000   1.0000   1.0000   1.0000
     1.0000   1.0000   1.0000   1.0000   1.0000   1.0000   1.0000   1.0000
     1.0000   1.0000   1.0000   1.0000   1.0000   1.0000   1.0000   1.0000
     1.0000   1.0000   1.0000   1.0000   0.0000   0.0000   0.0000   0.0000
     0.0000   0.0000   0.0000   0.0000   0.0000   0.0000   0.0000   0.0000
     0.0000   0.0000   0.0000   0.0000   0.0000   0.0000   0.0000   0.0000
     0.0000   0.0000   0.0000   0.0000   0.0000   0.0000   0.0000   0.0000
     0.0000   0.0000   0.0000   0.0000   0.0000   0.0000   0.0000   0.0000
     0.0000   0.0000   0.0000   0.0000   0.0000   0.0000   0.0000   0.0000
     0.0000   0.0000   0.0000   0.0000   0.0000   0.0000   0.0000   0.0000

          k = 0.2667 0.4619 0.0000 ( 59426 PWs)   bands (ev):

   -73.4619 -73.4616 -71.3727 -71.3723 -47.5876 -47.5865 -47.2962 -47.2958
   -46.9685 -46.9673 -45.3652 -45.3640 -45.0703 -45.0698 -44.8928 -44.8914
   -18.0979 -18.0631 -17.8556 -17.8077 -17.7708 -17.7160 -17.6548 -17.6483
   -17.6290 -17.6146 -17.4745 -17.4010 -11.6708 -11.5753 -11.4334 -11.2463
   -10.0232  -9.8879  -9.7939  -9.6578  -9.2731  -9.2372  -9.1816  -9.0877
    -8.8591  -8.7739  -8.5126  -8.4333  -8.2716  -8.1966  -8.0965  -7.9136
    -7.8164  -7.6257  -7.4623  -7.3613  -7.2748  -7.2092  -7.1653  -7.0032
    -6.8877  -6.8042  -6.7404  -6.6439  -6.6052  -6.5608  -6.4251  -6.3562
    -6.0248  -5.9423  -5.8642  -5.6321  -5.2671  -5.1918  -5.1808  -5.0203
    -4.9318  -4.9000  -4.1991  -4.1439  -4.0542  -3.8553  -3.7908  -3.7630
    -2.4441  -2.3623  -2.3280  -2.2768  -1.3960  -1.0958  -1.0414  -0.7584
    -0.3387  -0.2289  -0.2046  -0.1107  -0.0816   0.0399   0.3551   0.3686
     0.4974   0.5335   0.6205   0.6617   0.7644   0.9145   1.0368   1.0696
     1.1203   1.1789   1.2694   1.3314   1.3357   1.4667   1.5225   1.6599
     1.8716   1.9317   2.0351   2.0893   2.3310   2.3788   2.4888   2.5012

     occupation numbers 
     1.0000   1.0000   1.0000   1.0000   1.0000   1.0000   1.0000   1.0000
     1.0000   1.0000   1.0000   1.0000   1.0000   1.0000   1.0000   1.0000
     1.0000   1.0000   1.0000   1.0000   1.0000   1.0000   1.0000   1.0000
     1.0000   1.0000   1.0000   1.0000   1.0000   1.0000   1.0000   1.0000
     1.0000   1.0000   1.0000   1.0000   1.0000   1.0000   1.0000   1.0000
     1.0000   1.0000   1.0000   1.0000   1.0000   1.0000   1.0000   1.0000
     1.0000   1.0000   1.0000   1.0000   1.0000   1.0000   1.0000   1.0000
     1.0000   1.0000   1.0000   1.0000   1.0000   1.0000   1.0000   1.0000
     1.0000   1.0000   1.0000   1.0000   0.0000   0.0000   0.0000   0.0000
     0.0000   0.0000   0.0000   0.0000   0.0000   0.0000   0.0000   0.0000
     0.0000   0.0000   0.0000   0.0000   0.0000   0.0000   0.0000   0.0000
     0.0000   0.0000   0.0000   0.0000   0.0000   0.0000   0.0000   0.0000
     0.0000   0.0000   0.0000   0.0000   0.0000   0.0000   0.0000   0.0000
     0.0000   0.0000   0.0000   0.0000   0.0000   0.0000   0.0000   0.0000
     0.0000   0.0000   0.0000   0.0000   0.0000   0.0000   0.0000   0.0000

          k = 0.2583 0.4474 0.0000 ( 59418 PWs)   bands (ev):

   -73.4619 -73.4615 -71.3727 -71.3723 -47.5877 -47.5865 -47.2962 -47.2957
   -46.9686 -46.9673 -45.3653 -45.3639 -45.0703 -45.0698 -44.8929 -44.8913
   -18.1163 -18.0827 -17.8404 -17.7918 -17.7741 -17.7156 -17.6521 -17.6413
   -17.6257 -17.6228 -17.4667 -17.3976 -11.6707 -11.5812 -11.4223 -11.2453
   -10.0397  -9.9052  -9.7924  -9.6572  -9.2850  -9.2508  -9.1916  -9.1053
    -8.8501  -8.7806  -8.4859  -8.3880  -8.2720  -8.2014  -8.0616  -7.8954
    -7.7920  -7.6296  -7.4786  -7.3677  -7.2985  -7.2325  -7.1551  -7.0191
    -6.8969  -6.8251  -6.7374  -6.6560  -6.5957  -6.5536  -6.4304  -6.3417
    -6.0359  -5.9561  -5.8830  -5.6140  -5.2696  -5.1903  -5.1764  -5.0243
    -4.9356  -4.9038  -4.1969  -4.1382  -4.0484  -3.8549  -3.7934  -3.7657
    -2.4568  -2.3693  -2.3281  -2.2725  -1.3925  -1.0646  -1.0359  -0.7280
    -0.3145  -0.2305  -0.1783  -0.1148  -0.0419   0.0794   0.3601   0.3901
     0.4953   0.5555   0.6068   0.6531   0.7873   0.9367   1.0386   1.0581
     1.1285   1.1706   1.2956   1.3486   1.3602   1.4851   1.5584   1.6904
     1.8584   1.9320   2.0350   2.0623   2.3583   2.4124   2.5193   2.5332

     occupation numbers 
     1.0000   1.0000   1.0000   1.0000   1.0000   1.0000   1.0000   1.0000
     1.0000   1.0000   1.0000   1.0000   1.0000   1.0000   1.0000   1.0000
     1.0000   1.0000   1.0000   1.0000   1.0000   1.0000   1.0000   1.0000
     1.0000   1.0000   1.0000   1.0000   1.0000   1.0000   1.0000   1.0000
     1.0000   1.0000   1.0000   1.0000   1.0000   1.0000   1.0000   1.0000
     1.0000   1.0000   1.0000   1.0000   1.0000   1.0000   1.0000   1.0000
     1.0000   1.0000   1.0000   1.0000   1.0000   1.0000   1.0000   1.0000
     1.0000   1.0000   1.0000   1.0000   1.0000   1.0000   1.0000   1.0000
     1.0000   1.0000   1.0000   1.0000   0.0000   0.0000   0.0000   0.0000
     0.0000   0.0000   0.0000   0.0000   0.0000   0.0000   0.0000   0.0000
     0.0000   0.0000   0.0000   0.0000   0.0000   0.0000   0.0000   0.0000
     0.0000   0.0000   0.0000   0.0000   0.0000   0.0000   0.0000   0.0000
     0.0000   0.0000   0.0000   0.0000   0.0000   0.0000   0.0000   0.0000
     0.0000   0.0000   0.0000   0.0000   0.0000   0.0000   0.0000   0.0000
     0.0000   0.0000   0.0000   0.0000   0.0000   0.0000   0.0000   0.0000

          k = 0.2500 0.4330 0.0000 ( 59444 PWs)   bands (ev):

   -73.4619 -73.4615 -71.3727 -71.3723 -47.5877 -47.5864 -47.2962 -47.2957
   -46.9687 -46.9672 -45.3654 -45.3638 -45.0703 -45.0698 -44.8930 -44.8912
   -18.1349 -18.1025 -17.8251 -17.7789 -17.7752 -17.7138 -17.6495 -17.6423
   -17.6284 -17.6166 -17.4589 -17.3941 -11.6705 -11.5866 -11.4111 -11.2443
   -10.0555  -9.9218  -9.7921  -9.6579  -9.2963  -9.2642  -9.2007  -9.1223
    -8.8474  -8.7900  -8.4533  -8.3422  -8.2735  -8.2042  -8.0254  -7.8776
    -7.7672  -7.6346  -7.4952  -7.3779  -7.3215  -7.2548  -7.1426  -7.0370
    -6.9118  -6.8435  -6.7332  -6.6696  -6.5904  -6.5400  -6.4390  -6.3243
    -6.0498  -5.9665  -5.9021  -5.5959  -5.2716  -5.1887  -5.1719  -5.0285
    -4.9398  -4.9079  -4.1937  -4.1325  -4.0425  -3.8544  -3.7964  -3.7686
    -2.4692  -2.3764  -2.3282  -2.2687  -1.3872  -1.0339  -1.0279  -0.6972
    -0.2886  -0.2343  -0.1520  -0.1199  -0.0002   0.1209   0.3627   0.4144
     0.4887   0.5796   0.5959   0.6496   0.8166   0.9641   1.0419   1.0509
     1.1377   1.1653   1.3200   1.3598   1.3864   1.5019   1.5938   1.7206
     1.8514   1.9356   2.0319   2.0453   2.3854   2.4411   2.5477   2.5605

     occupation numbers 
     1.0000   1.0000   1.0000   1.0000   1.0000   1.0000   1.0000   1.0000
     1.0000   1.0000   1.0000   1.0000   1.0000   1.0000   1.0000   1.0000
     1.0000   1.0000   1.0000   1.0000   1.0000   1.0000   1.0000   1.0000
     1.0000   1.0000   1.0000   1.0000   1.0000   1.0000   1.0000   1.0000
     1.0000   1.0000   1.0000   1.0000   1.0000   1.0000   1.0000   1.0000
     1.0000   1.0000   1.0000   1.0000   1.0000   1.0000   1.0000   1.0000
     1.0000   1.0000   1.0000   1.0000   1.0000   1.0000   1.0000   1.0000
     1.0000   1.0000   1.0000   1.0000   1.0000   1.0000   1.0000   1.0000
     1.0000   1.0000   1.0000   1.0000   0.0000   0.0000   0.0000   0.0000
     0.0000   0.0000   0.0000   0.0000   0.0000   0.0000   0.0000   0.0000
     0.0000   0.0000   0.0000   0.0000   0.0000   0.0000   0.0000   0.0000
     0.0000   0.0000   0.0000   0.0000   0.0000   0.0000   0.0000   0.0000
     0.0000   0.0000   0.0000   0.0000   0.0000   0.0000   0.0000   0.0000
     0.0000   0.0000   0.0000   0.0000   0.0000   0.0000   0.0000   0.0000
     0.0000   0.0000   0.0000   0.0000   0.0000   0.0000   0.0000   0.0000

          k = 0.2417 0.4186 0.0000 ( 59456 PWs)   bands (ev):

   -73.4619 -73.4615 -71.3727 -71.3723 -47.5878 -47.5863 -47.2962 -47.2957
   -46.9688 -46.9671 -45.3655 -45.3637 -45.0704 -45.0697 -44.8931 -44.8911
   -18.1535 -18.1221 -17.8098 -17.7834 -17.7593 -17.7110 -17.6535 -17.6467
   -17.6210 -17.6105 -17.4512 -17.3905 -11.6701 -11.5914 -11.4001 -11.2434
   -10.0705  -9.9377  -9.7928  -9.6595  -9.3067  -9.2771  -9.2090  -9.1386
    -8.8501  -8.8005  -8.4166  -8.3044  -8.2751  -8.1990  -7.9896  -7.8597
    -7.7442  -7.6388  -7.5125  -7.3952  -7.3392  -7.2745  -7.1292  -7.0566
    -6.9343  -6.8561  -6.7292  -6.6835  -6.5887  -6.5220  -6.4485  -6.3057
    -6.0654  -5.9741  -5.9210  -5.5782  -5.2730  -5.1869  -5.1673  -5.0326
    -4.9444  -4.9124  -4.1897  -4.1270  -4.0364  -3.8539  -3.7997  -3.7718
    -2.4810  -2.3835  -2.3284  -2.2653  -1.3806  -1.0203  -1.0013  -0.6665
    -0.2617  -0.2399  -0.1388  -0.1132   0.0425   0.1633   0.3621   0.4413
     0.4781   0.5870   0.6084   0.6515   0.8504   0.9944   1.0467   1.0503
     1.1480   1.1645   1.3397   1.3689   1.4121   1.5154   1.6278   1.7499
     1.8524   1.9418   2.0183   2.0473   2.4113   2.4622   2.5683   2.5848

     occupation numbers 
     1.0000   1.0000   1.0000   1.0000   1.0000   1.0000   1.0000   1.0000
     1.0000   1.0000   1.0000   1.0000   1.0000   1.0000   1.0000   1.0000
     1.0000   1.0000   1.0000   1.0000   1.0000   1.0000   1.0000   1.0000
     1.0000   1.0000   1.0000   1.0000   1.0000   1.0000   1.0000   1.0000
     1.0000   1.0000   1.0000   1.0000   1.0000   1.0000   1.0000   1.0000
     1.0000   1.0000   1.0000   1.0000   1.0000   1.0000   1.0000   1.0000
     1.0000   1.0000   1.0000   1.0000   1.0000   1.0000   1.0000   1.0000
     1.0000   1.0000   1.0000   1.0000   1.0000   1.0000   1.0000   1.0000
     1.0000   1.0000   1.0000   1.0000   0.0000   0.0000   0.0000   0.0000
     0.0000   0.0000   0.0000   0.0000   0.0000   0.0000   0.0000   0.0000
     0.0000   0.0000   0.0000   0.0000   0.0000   0.0000   0.0000   0.0000
     0.0000   0.0000   0.0000   0.0000   0.0000   0.0000   0.0000   0.0000
     0.0000   0.0000   0.0000   0.0000   0.0000   0.0000   0.0000   0.0000
     0.0000   0.0000   0.0000   0.0000   0.0000   0.0000   0.0000   0.0000
     0.0000   0.0000   0.0000   0.0000   0.0000   0.0000   0.0000   0.0000

          k = 0.2333 0.4041 0.0000 ( 59458 PWs)   bands (ev):

   -73.4619 -73.4615 -71.3727 -71.3723 -47.5879 -47.5863 -47.2962 -47.2957
   -46.9688 -46.9671 -45.3655 -45.3637 -45.0704 -45.0697 -44.8932 -44.8910
   -18.1721 -18.1417 -17.7950 -17.7882 -17.7430 -17.7074 -17.6657 -17.6441
   -17.6121 -17.6044 -17.4435 -17.3869 -11.6695 -11.5958 -11.3891 -11.2426
   -10.0846  -9.9526  -9.7944  -9.6620  -9.3164  -9.2893  -9.2164  -9.1540
    -8.8571  -8.8113  -8.3782  -8.2929  -8.2700  -8.1757  -7.9559  -7.8409
    -7.7273  -7.6384  -7.5307  -7.4210  -7.3491  -7.2914  -7.1168  -7.0765
    -6.9633  -6.8626  -6.7280  -6.6947  -6.5896  -6.5026  -6.4563  -6.2866
    -6.0812  -5.9796  -5.9393  -5.5608  -5.2739  -5.1849  -5.1627  -5.0366
    -4.9493  -4.9171  -4.1848  -4.1216  -4.0302  -3.8534  -3.8032  -3.7752
    -2.4921  -2.3905  -2.3287  -2.2624  -1.3730  -1.0102  -0.9706  -0.6365
    -0.2507  -0.2304  -0.1472  -0.0860   0.0848   0.2054   0.3583   0.4627
     0.4723   0.5850   0.6368   0.6579   0.8873   1.0232   1.0520   1.0618
     1.1594   1.1698   1.3476   1.3832   1.4368   1.5244   1.6598   1.7775
     1.8620   1.9500   2.0103   2.0537   2.4353   2.4735   2.5751   2.6101

     occupation numbers 
     1.0000   1.0000   1.0000   1.0000   1.0000   1.0000   1.0000   1.0000
     1.0000   1.0000   1.0000   1.0000   1.0000   1.0000   1.0000   1.0000
     1.0000   1.0000   1.0000   1.0000   1.0000   1.0000   1.0000   1.0000
     1.0000   1.0000   1.0000   1.0000   1.0000   1.0000   1.0000   1.0000
     1.0000   1.0000   1.0000   1.0000   1.0000   1.0000   1.0000   1.0000
     1.0000   1.0000   1.0000   1.0000   1.0000   1.0000   1.0000   1.0000
     1.0000   1.0000   1.0000   1.0000   1.0000   1.0000   1.0000   1.0000
     1.0000   1.0000   1.0000   1.0000   1.0000   1.0000   1.0000   1.0000
     1.0000   1.0000   1.0000   1.0000   0.0000   0.0000   0.0000   0.0000
     0.0000   0.0000   0.0000   0.0000   0.0000   0.0000   0.0000   0.0000
     0.0000   0.0000   0.0000   0.0000   0.0000   0.0000   0.0000   0.0000
     0.0000   0.0000   0.0000   0.0000   0.0000   0.0000   0.0000   0.0000
     0.0000   0.0000   0.0000   0.0000   0.0000   0.0000   0.0000   0.0000
     0.0000   0.0000   0.0000   0.0000   0.0000   0.0000   0.0000   0.0000
     0.0000   0.0000   0.0000   0.0000   0.0000   0.0000   0.0000   0.0000

          k = 0.2250 0.3897 0.0000 ( 59468 PWs)   bands (ev):

   -73.4619 -73.4615 -71.3727 -71.3723 -47.5879 -47.5862 -47.2963 -47.2957
   -46.9689 -46.9670 -45.3656 -45.3636 -45.0704 -45.0697 -44.8933 -44.8909
   -18.1906 -18.1611 -17.7951 -17.7784 -17.7266 -17.7033 -17.6782 -17.6414
   -17.6029 -17.5984 -17.4359 -17.3832 -11.6686 -11.5996 -11.3783 -11.2419
   -10.0979  -9.9666  -9.7966  -9.6650  -9.3253  -9.3007  -9.2230  -9.1686
    -8.8672  -8.8220  -8.3433  -8.2993  -8.2630  -8.1357  -7.9263  -7.8205
    -7.7208  -7.6284  -7.5496  -7.4521  -7.3527  -7.3062  -7.1146  -7.0885
    -6.9952  -6.8647  -6.7352  -6.6979  -6.5930  -6.4866  -6.4574  -6.2677
    -6.0955  -5.9839  -5.9566  -5.5441  -5.2742  -5.1825  -5.1579  -5.0405
    -4.9545  -4.9220  -4.1792  -4.1164  -4.0240  -3.8530  -3.8070  -3.7788
    -2.5023  -2.3972  -2.3290  -2.2600  -1.3648  -0.9995  -0.9411  -0.6081
    -0.2598  -0.2015  -0.1597  -0.0556   0.1252   0.2457   0.3516   0.4485
     0.5026   0.5864   0.6636   0.6706   0.9261   1.0438   1.0629   1.0873
     1.1725   1.1822   1.3446   1.4028   1.4603   1.5290   1.6884   1.8024
     1.8801   1.9598   2.0118   2.0615   2.4564   2.4748   2.5712   2.6341

     occupation numbers 
     1.0000   1.0000   1.0000   1.0000   1.0000   1.0000   1.0000   1.0000
     1.0000   1.0000   1.0000   1.0000   1.0000   1.0000   1.0000   1.0000
     1.0000   1.0000   1.0000   1.0000   1.0000   1.0000   1.0000   1.0000
     1.0000   1.0000   1.0000   1.0000   1.0000   1.0000   1.0000   1.0000
     1.0000   1.0000   1.0000   1.0000   1.0000   1.0000   1.0000   1.0000
     1.0000   1.0000   1.0000   1.0000   1.0000   1.0000   1.0000   1.0000
     1.0000   1.0000   1.0000   1.0000   1.0000   1.0000   1.0000   1.0000
     1.0000   1.0000   1.0000   1.0000   1.0000   1.0000   1.0000   1.0000
     1.0000   1.0000   1.0000   1.0000   0.0000   0.0000   0.0000   0.0000
     0.0000   0.0000   0.0000   0.0000   0.0000   0.0000   0.0000   0.0000
     0.0000   0.0000   0.0000   0.0000   0.0000   0.0000   0.0000   0.0000
     0.0000   0.0000   0.0000   0.0000   0.0000   0.0000   0.0000   0.0000
     0.0000   0.0000   0.0000   0.0000   0.0000   0.0000   0.0000   0.0000
     0.0000   0.0000   0.0000   0.0000   0.0000   0.0000   0.0000   0.0000
     0.0000   0.0000   0.0000   0.0000   0.0000   0.0000   0.0000   0.0000

          k = 0.2167 0.3753 0.0000 ( 59474 PWs)   bands (ev):

   -73.4619 -73.4615 -71.3727 -71.3723 -47.5880 -47.5861 -47.2963 -47.2957
   -46.9690 -46.9669 -45.3657 -45.3635 -45.0704 -45.0697 -44.8933 -44.8908
   -18.2089 -18.1801 -17.8008 -17.7632 -17.7103 -17.6988 -17.6905 -17.6388
   -17.5935 -17.5925 -17.4284 -17.3796 -11.6675 -11.6028 -11.3678 -11.2414
   -10.1103  -9.9797  -9.7994  -9.6685  -9.3333  -9.3110  -9.2288  -9.1821
    -8.8793  -8.8323  -8.3294  -8.3037  -8.2489  -8.0902  -7.9031  -7.7985
    -7.7223  -7.6106  -7.5687  -7.4853  -7.3519  -7.3199  -7.1320  -7.0881
    -7.0228  -6.8637  -6.7497  -6.6935  -6.5989  -6.4804  -6.4457  -6.2498
    -6.1064  -5.9873  -5.9725  -5.5283  -5.2739  -5.1795  -5.1530  -5.0442
    -4.9600  -4.9271  -4.1730  -4.1115  -4.0178  -3.8526  -3.8112  -3.7826
    -2.5116  -2.4036  -2.3293  -2.2580  -1.3562  -0.9884  -0.9137  -0.5828
    -0.2702  -0.1732  -0.1709  -0.0245   0.1623   0.2831   0.3427   0.4324
     0.5351   0.5899   0.6751   0.7002   0.9651   1.0595   1.0810   1.1216
     1.1889   1.2021   1.3378   1.4230   1.4819   1.5303   1.7123   1.8235
     1.9057   1.9713   2.0235   2.0709   2.4670   2.4748   2.5603   2.6551

     occupation numbers 
     1.0000   1.0000   1.0000   1.0000   1.0000   1.0000   1.0000   1.0000
     1.0000   1.0000   1.0000   1.0000   1.0000   1.0000   1.0000   1.0000
     1.0000   1.0000   1.0000   1.0000   1.0000   1.0000   1.0000   1.0000
     1.0000   1.0000   1.0000   1.0000   1.0000   1.0000   1.0000   1.0000
     1.0000   1.0000   1.0000   1.0000   1.0000   1.0000   1.0000   1.0000
     1.0000   1.0000   1.0000   1.0000   1.0000   1.0000   1.0000   1.0000
     1.0000   1.0000   1.0000   1.0000   1.0000   1.0000   1.0000   1.0000
     1.0000   1.0000   1.0000   1.0000   1.0000   1.0000   1.0000   1.0000
     1.0000   1.0000   1.0000   1.0000   0.0000   0.0000   0.0000   0.0000
     0.0000   0.0000   0.0000   0.0000   0.0000   0.0000   0.0000   0.0000
     0.0000   0.0000   0.0000   0.0000   0.0000   0.0000   0.0000   0.0000
     0.0000   0.0000   0.0000   0.0000   0.0000   0.0000   0.0000   0.0000
     0.0000   0.0000   0.0000   0.0000   0.0000   0.0000   0.0000   0.0000
     0.0000   0.0000   0.0000   0.0000   0.0000   0.0000   0.0000   0.0000
     0.0000   0.0000   0.0000   0.0000   0.0000   0.0000   0.0000   0.0000

          k = 0.2083 0.3608 0.0000 ( 59478 PWs)   bands (ev):

   -73.4619 -73.4615 -71.3727 -71.3723 -47.5881 -47.5861 -47.2963 -47.2956
   -46.9691 -46.9668 -45.3658 -45.3634 -45.0705 -45.0697 -44.8934 -44.8908
   -18.2269 -18.1989 -17.8067 -17.7480 -17.7037 -17.6941 -17.6929 -17.6361
   -17.5868 -17.5839 -17.4211 -17.3760 -11.6661 -11.6055 -11.3576 -11.2410
   -10.1217  -9.9917  -9.8025  -9.6722  -9.3404  -9.3200  -9.2338  -9.1944
    -8.8924  -8.8423  -8.3424  -8.3067  -8.2173  -8.0459  -7.8882  -7.7788
    -7.7217  -7.5970  -7.5820  -7.5173  -7.3483  -7.3322  -7.1539  -7.1040
    -7.0304  -6.8607  -6.7667  -6.6858  -6.6067  -6.4779  -6.4276  -6.2336
    -6.1118  -5.9902  -5.9866  -5.5137  -5.2730  -5.1760  -5.1479  -5.0477
    -4.9655  -4.9324  -4.1664  -4.1069  -4.0116  -3.8523  -3.8155  -3.7864
    -2.5197  -2.4094  -2.3298  -2.2565  -1.3476  -0.9771  -0.8894  -0.5622
    -0.2805  -0.1839  -0.1411   0.0065   0.1951   0.3166   0.3324   0.4160
     0.5674   0.5941   0.6839   0.7318   1.0018   1.0771   1.1073   1.1560
     1.2106   1.2301   1.3316   1.4422   1.5005   1.5316   1.7302   1.8396
     1.9381   1.9852   2.0446   2.0829   2.4548   2.4874   2.5448   2.6720

     occupation numbers 
     1.0000   1.0000   1.0000   1.0000   1.0000   1.0000   1.0000   1.0000
     1.0000   1.0000   1.0000   1.0000   1.0000   1.0000   1.0000   1.0000
     1.0000   1.0000   1.0000   1.0000   1.0000   1.0000   1.0000   1.0000
     1.0000   1.0000   1.0000   1.0000   1.0000   1.0000   1.0000   1.0000
     1.0000   1.0000   1.0000   1.0000   1.0000   1.0000   1.0000   1.0000
     1.0000   1.0000   1.0000   1.0000   1.0000   1.0000   1.0000   1.0000
     1.0000   1.0000   1.0000   1.0000   1.0000   1.0000   1.0000   1.0000
     1.0000   1.0000   1.0000   1.0000   1.0000   1.0000   1.0000   1.0000
     1.0000   1.0000   1.0000   1.0000   0.0000   0.0000   0.0000   0.0000
     0.0000   0.0000   0.0000   0.0000   0.0000   0.0000   0.0000   0.0000
     0.0000   0.0000   0.0000   0.0000   0.0000   0.0000   0.0000   0.0000
     0.0000   0.0000   0.0000   0.0000   0.0000   0.0000   0.0000   0.0000
     0.0000   0.0000   0.0000   0.0000   0.0000   0.0000   0.0000   0.0000
     0.0000   0.0000   0.0000   0.0000   0.0000   0.0000   0.0000   0.0000
     0.0000   0.0000   0.0000   0.0000   0.0000   0.0000   0.0000   0.0000

          k = 0.2000 0.3464 0.0000 ( 59461 PWs)   bands (ev):

   -73.4619 -73.4615 -71.3727 -71.3723 -47.5881 -47.5860 -47.2963 -47.2956
   -46.9691 -46.9668 -45.3659 -45.3633 -45.0705 -45.0696 -44.8935 -44.8907
   -18.2447 -18.2173 -17.8126 -17.7329 -17.7156 -17.6889 -17.6770 -17.6335
   -17.5812 -17.5743 -17.4140 -17.3726 -11.6643 -11.6076 -11.3478 -11.2408
   -10.1322 -10.0026  -9.8059  -9.6762  -9.3467  -9.3275  -9.2381  -9.2054
    -8.9058  -8.8519  -8.3634  -8.3172  -8.1775  -8.0056  -7.8823  -7.7725
    -7.7053  -7.6120  -7.5749  -7.5406  -7.3549  -7.3317  -7.1752  -7.1368
    -7.0200  -6.8567  -6.7841  -6.6762  -6.6149  -6.4745  -6.4099  -6.2200
    -6.1098  -6.0001  -5.9911  -5.5004  -5.2714  -5.1717  -5.1427  -5.0509
    -4.9711  -4.9379  -4.1595  -4.1025  -4.0055  -3.8522  -3.8202  -3.7903
    -2.5266  -2.4147  -2.3303  -2.2554  -1.3393  -0.9660  -0.8695  -0.5485
    -0.2890  -0.1909  -0.1109   0.0371   0.2231   0.3208   0.3459   0.3996
     0.5903   0.6041   0.6903   0.7621   1.0326   1.1004   1.1417   1.1857
     1.2396   1.2658   1.3299   1.4602   1.5141   1.5384   1.7420   1.8502
     1.9761   2.0028   2.0739   2.0993   2.4383   2.4940   2.5269   2.6838

     occupation numbers 
     1.0000   1.0000   1.0000   1.0000   1.0000   1.0000   1.0000   1.0000
     1.0000   1.0000   1.0000   1.0000   1.0000   1.0000   1.0000   1.0000
     1.0000   1.0000   1.0000   1.0000   1.0000   1.0000   1.0000   1.0000
     1.0000   1.0000   1.0000   1.0000   1.0000   1.0000   1.0000   1.0000
     1.0000   1.0000   1.0000   1.0000   1.0000   1.0000   1.0000   1.0000
     1.0000   1.0000   1.0000   1.0000   1.0000   1.0000   1.0000   1.0000
     1.0000   1.0000   1.0000   1.0000   1.0000   1.0000   1.0000   1.0000
     1.0000   1.0000   1.0000   1.0000   1.0000   1.0000   1.0000   1.0000
     1.0000   1.0000   1.0000   1.0000   0.0000   0.0000   0.0000   0.0000
     0.0000   0.0000   0.0000   0.0000   0.0000   0.0000   0.0000   0.0000
     0.0000   0.0000   0.0000   0.0000   0.0000   0.0000   0.0000   0.0000
     0.0000   0.0000   0.0000   0.0000   0.0000   0.0000   0.0000   0.0000
     0.0000   0.0000   0.0000   0.0000   0.0000   0.0000   0.0000   0.0000
     0.0000   0.0000   0.0000   0.0000   0.0000   0.0000   0.0000   0.0000
     0.0000   0.0000   0.0000   0.0000   0.0000   0.0000   0.0000   0.0000

          k = 0.1917 0.3320 0.0000 ( 59461 PWs)   bands (ev):

   -73.4619 -73.4615 -71.3727 -71.3723 -47.5882 -47.5859 -47.2963 -47.2956
   -46.9692 -46.9667 -45.3659 -45.3633 -45.0705 -45.0696 -44.8936 -44.8906
   -18.2621 -18.2353 -17.8185 -17.7277 -17.7180 -17.6837 -17.6608 -17.6309
   -17.5757 -17.5646 -17.4070 -17.3692 -11.6623 -11.6091 -11.3385 -11.2408
   -10.1418 -10.0123  -9.8095  -9.6802  -9.3521  -9.3334  -9.2418  -9.2150
    -8.9192  -8.8609  -8.3882  -8.3328  -8.1362  -7.9711  -7.8851  -7.7784
    -7.6754  -7.6326  -7.5860  -7.5393  -7.3726  -7.3188  -7.1978  -7.1696
    -7.0040  -6.8531  -6.8001  -6.6651  -6.6214  -6.4699  -6.3946  -6.2084
    -6.0995  -6.0114  -5.9912  -5.4889  -5.2690  -5.1666  -5.1372  -5.0540
    -4.9766  -4.9436  -4.1523  -4.0984  -3.9996  -3.8524  -3.8251  -3.7941
    -2.5322  -2.4194  -2.3308  -2.2547  -1.3315  -0.9554  -0.8551  -0.5439
    -0.2943  -0.1912  -0.0813   0.0665   0.2461   0.3088   0.3705   0.3834
     0.5906   0.6289   0.6929   0.7892   1.0560   1.1290   1.1827   1.2113
     1.2738   1.3069   1.3382   1.4772   1.5248   1.5524   1.7492   1.8562
     2.0186   2.0256   2.1099   2.1210   2.4185   2.4887   2.5125   2.6902

     occupation numbers 
     1.0000   1.0000   1.0000   1.0000   1.0000   1.0000   1.0000   1.0000
     1.0000   1.0000   1.0000   1.0000   1.0000   1.0000   1.0000   1.0000
     1.0000   1.0000   1.0000   1.0000   1.0000   1.0000   1.0000   1.0000
     1.0000   1.0000   1.0000   1.0000   1.0000   1.0000   1.0000   1.0000
     1.0000   1.0000   1.0000   1.0000   1.0000   1.0000   1.0000   1.0000
     1.0000   1.0000   1.0000   1.0000   1.0000   1.0000   1.0000   1.0000
     1.0000   1.0000   1.0000   1.0000   1.0000   1.0000   1.0000   1.0000
     1.0000   1.0000   1.0000   1.0000   1.0000   1.0000   1.0000   1.0000
     1.0000   1.0000   1.0000   1.0000   0.0000   0.0000   0.0000   0.0000
     0.0000   0.0000   0.0000   0.0000   0.0000   0.0000   0.0000   0.0000
     0.0000   0.0000   0.0000   0.0000   0.0000   0.0000   0.0000   0.0000
     0.0000   0.0000   0.0000   0.0000   0.0000   0.0000   0.0000   0.0000
     0.0000   0.0000   0.0000   0.0000   0.0000   0.0000   0.0000   0.0000
     0.0000   0.0000   0.0000   0.0000   0.0000   0.0000   0.0000   0.0000
     0.0000   0.0000   0.0000   0.0000   0.0000   0.0000   0.0000   0.0000

          k = 0.1833 0.3175 0.0000 ( 59467 PWs)   bands (ev):

   -73.4619 -73.4615 -71.3727 -71.3723 -47.5882 -47.5859 -47.2963 -47.2956
   -46.9693 -46.9666 -45.3660 -45.3632 -45.0705 -45.0696 -44.8937 -44.8905
   -18.2791 -18.2527 -17.8242 -17.7396 -17.7033 -17.6784 -17.6447 -17.6283
   -17.5704 -17.5550 -17.4003 -17.3659 -11.6599 -11.6102 -11.3297 -11.2410
   -10.1504 -10.0210  -9.8133  -9.6843  -9.3565  -9.3377  -9.2450  -9.2229
    -8.9323  -8.8693  -8.4156  -8.3524  -8.0959  -7.9430  -7.8953  -7.7895
    -7.6542  -7.6476  -7.5959  -7.5311  -7.3944  -7.3041  -7.2290  -7.1870
    -6.9861  -6.8524  -6.8124  -6.6531  -6.6241  -6.4653  -6.3818  -6.1980
    -6.0821  -6.0213  -5.9891  -5.4793  -5.2656  -5.1606  -5.1315  -5.0569
    -4.9819  -4.9493  -4.1450  -4.0947  -3.9939  -3.8530  -3.8301  -3.7977
    -2.5365  -2.4234  -2.3314  -2.2545  -1.3244  -0.9455  -0.8476  -0.5496
    -0.2951  -0.1835  -0.0528   0.0944   0.2646   0.2963   0.3674   0.3912
     0.5832   0.6489   0.6913   0.8110   1.0741   1.1577   1.2209   1.2447
     1.3079   1.3418   1.3702   1.4940   1.5403   1.5704   1.7552   1.8605
     2.0535   2.0657   2.1475   2.1521   2.3961   2.4683   2.5051   2.6908

     occupation numbers 
     1.0000   1.0000   1.0000   1.0000   1.0000   1.0000   1.0000   1.0000
     1.0000   1.0000   1.0000   1.0000   1.0000   1.0000   1.0000   1.0000
     1.0000   1.0000   1.0000   1.0000   1.0000   1.0000   1.0000   1.0000
     1.0000   1.0000   1.0000   1.0000   1.0000   1.0000   1.0000   1.0000
     1.0000   1.0000   1.0000   1.0000   1.0000   1.0000   1.0000   1.0000
     1.0000   1.0000   1.0000   1.0000   1.0000   1.0000   1.0000   1.0000
     1.0000   1.0000   1.0000   1.0000   1.0000   1.0000   1.0000   1.0000
     1.0000   1.0000   1.0000   1.0000   1.0000   1.0000   1.0000   1.0000
     1.0000   1.0000   1.0000   1.0000   0.0000   0.0000   0.0000   0.0000
     0.0000   0.0000   0.0000   0.0000   0.0000   0.0000   0.0000   0.0000
     0.0000   0.0000   0.0000   0.0000   0.0000   0.0000   0.0000   0.0000
     0.0000   0.0000   0.0000   0.0000   0.0000   0.0000   0.0000   0.0000
     0.0000   0.0000   0.0000   0.0000   0.0000   0.0000   0.0000   0.0000
     0.0000   0.0000   0.0000   0.0000   0.0000   0.0000   0.0000   0.0000
     0.0000   0.0000   0.0000   0.0000   0.0000   0.0000   0.0000   0.0000

          k = 0.1750 0.3031 0.0000 ( 59491 PWs)   bands (ev):

   -73.4619 -73.4615 -71.3727 -71.3723 -47.5883 -47.5858 -47.2964 -47.2956
   -46.9693 -46.9666 -45.3661 -45.3631 -45.0705 -45.0696 -44.8938 -44.8904
   -18.2956 -18.2697 -17.8299 -17.7513 -17.6890 -17.6730 -17.6287 -17.6257
   -17.5653 -17.5454 -17.3938 -17.3627 -11.6572 -11.6107 -11.3215 -11.2415
   -10.1581 -10.0285  -9.8172  -9.6883  -9.3598  -9.3404  -9.2480  -9.2290
    -8.9448  -8.8770  -8.4450  -8.3752  -8.0584  -7.9240  -7.9089  -7.8047
    -7.6730  -7.6441  -7.5796  -7.5266  -7.4192  -7.3002  -7.2555  -7.1895
    -6.9671  -6.8580  -6.8175  -6.6411  -6.6206  -6.4612  -6.3704  -6.1879
    -6.0599  -6.0294  -5.9840  -5.4721  -5.2610  -5.1539  -5.1255  -5.0597
    -4.9869  -4.9551  -4.1376  -4.0912  -3.9886  -3.8541  -3.8354  -3.8010
    -2.5394  -2.4267  -2.3320  -2.2548  -1.3182  -0.9366  -0.8476  -0.5650
    -0.2904  -0.1678  -0.0258   0.1201   0.2793   0.2838   0.3519   0.4085
     0.5688   0.6572   0.6874   0.8259   1.0889   1.1807   1.2436   1.2987
     1.3379   1.3713   1.4247   1.5125   1.5650   1.5922   1.7643   1.8669
     2.0872   2.1154   2.1792   2.1980   2.3719   2.4431   2.4962   2.6851

     occupation numbers 
     1.0000   1.0000   1.0000   1.0000   1.0000   1.0000   1.0000   1.0000
     1.0000   1.0000   1.0000   1.0000   1.0000   1.0000   1.0000   1.0000
     1.0000   1.0000   1.0000   1.0000   1.0000   1.0000   1.0000   1.0000
     1.0000   1.0000   1.0000   1.0000   1.0000   1.0000   1.0000   1.0000
     1.0000   1.0000   1.0000   1.0000   1.0000   1.0000   1.0000   1.0000
     1.0000   1.0000   1.0000   1.0000   1.0000   1.0000   1.0000   1.0000
     1.0000   1.0000   1.0000   1.0000   1.0000   1.0000   1.0000   1.0000
     1.0000   1.0000   1.0000   1.0000   1.0000   1.0000   1.0000   1.0000
     1.0000   1.0000   1.0000   1.0000   0.0000   0.0000   0.0000   0.0000
     0.0000   0.0000   0.0000   0.0000   0.0000   0.0000   0.0000   0.0000
     0.0000   0.0000   0.0000   0.0000   0.0000   0.0000   0.0000   0.0000
     0.0000   0.0000   0.0000   0.0000   0.0000   0.0000   0.0000   0.0000
     0.0000   0.0000   0.0000   0.0000   0.0000   0.0000   0.0000   0.0000
     0.0000   0.0000   0.0000   0.0000   0.0000   0.0000   0.0000   0.0000
     0.0000   0.0000   0.0000   0.0000   0.0000   0.0000   0.0000   0.0000

          k = 0.1667 0.2887 0.0000 ( 59517 PWs)   bands (ev):

   -73.4619 -73.4615 -71.3727 -71.3723 -47.5884 -47.5858 -47.2964 -47.2956
   -46.9694 -46.9665 -45.3661 -45.3630 -45.0706 -45.0695 -44.8938 -44.8903
   -18.3117 -18.2861 -17.8353 -17.7626 -17.6750 -17.6677 -17.6232 -17.6129
   -17.5604 -17.5359 -17.3876 -17.3597 -11.6541 -11.6106 -11.3140 -11.2421
   -10.1649 -10.0349  -9.8211  -9.6922  -9.3617  -9.3415  -9.2509  -9.2330
    -8.9566  -8.8839  -8.4759  -8.4009  -8.0263  -7.9334  -7.9051  -7.8225
    -7.6879  -7.6543  -7.5510  -7.5270  -7.4455  -7.3247  -7.2552  -7.1822
    -6.9470  -6.8688  -6.8152  -6.6307  -6.6094  -6.4577  -6.3590  -6.1789
    -6.0451  -6.0251  -5.9750  -5.4673  -5.2552  -5.1466  -5.1193  -5.0623
    -4.9913  -4.9609  -4.1304  -4.0880  -3.9837  -3.8559  -3.8405  -3.8039
    -2.5408  -2.4292  -2.3327  -2.2553  -1.3130  -0.9288  -0.8553  -0.5888
    -0.2797  -0.1456  -0.0008   0.1428   0.2706   0.2916   0.3371   0.4235
     0.5471   0.6486   0.6851   0.8328   1.1012   1.1952   1.2587   1.3594
     1.3632   1.4083   1.4882   1.5352   1.6000   1.6194   1.7804   1.8796
     2.1255   2.1678   2.2140   2.2478   2.3483   2.4192   2.4832   2.6725

     occupation numbers 
     1.0000   1.0000   1.0000   1.0000   1.0000   1.0000   1.0000   1.0000
     1.0000   1.0000   1.0000   1.0000   1.0000   1.0000   1.0000   1.0000
     1.0000   1.0000   1.0000   1.0000   1.0000   1.0000   1.0000   1.0000
     1.0000   1.0000   1.0000   1.0000   1.0000   1.0000   1.0000   1.0000
     1.0000   1.0000   1.0000   1.0000   1.0000   1.0000   1.0000   1.0000
     1.0000   1.0000   1.0000   1.0000   1.0000   1.0000   1.0000   1.0000
     1.0000   1.0000   1.0000   1.0000   1.0000   1.0000   1.0000   1.0000
     1.0000   1.0000   1.0000   1.0000   1.0000   1.0000   1.0000   1.0000
     1.0000   1.0000   1.0000   1.0000   0.0000   0.0000   0.0000   0.0000
     0.0000   0.0000   0.0000   0.0000   0.0000   0.0000   0.0000   0.0000
     0.0000   0.0000   0.0000   0.0000   0.0000   0.0000   0.0000   0.0000
     0.0000   0.0000   0.0000   0.0000   0.0000   0.0000   0.0000   0.0000
     0.0000   0.0000   0.0000   0.0000   0.0000   0.0000   0.0000   0.0000
     0.0000   0.0000   0.0000   0.0000   0.0000   0.0000   0.0000   0.0000
     0.0000   0.0000   0.0000   0.0000   0.0000   0.0000   0.0000   0.0000

          k = 0.1583 0.2742 0.0000 ( 59493 PWs)   bands (ev):

   -73.4619 -73.4615 -71.3727 -71.3723 -47.5884 -47.5857 -47.2964 -47.2956
   -46.9695 -46.9664 -45.3662 -45.3630 -45.0706 -45.0695 -44.8939 -44.8903
   -18.3271 -18.3019 -17.8406 -17.7736 -17.6625 -17.6615 -17.6205 -17.5974
   -17.5557 -17.5266 -17.3817 -17.3569 -11.6507 -11.6101 -11.3072 -11.2430
   -10.1708 -10.0401  -9.8251  -9.6960  -9.3621  -9.3411  -9.2537  -9.2351
    -8.9677  -8.8899  -8.5076  -8.4287  -8.0074  -7.9478  -7.9048  -7.8362
    -7.6987  -7.6666  -7.5358  -7.5241  -7.4709  -7.3565  -7.2446  -7.1698
    -6.9260  -6.8804  -6.8084  -6.6209  -6.5915  -6.4537  -6.3466  -6.1716
    -6.0504  -5.9975  -5.9614  -5.4650  -5.2479  -5.1393  -5.1127  -5.0648
    -4.9951  -4.9665  -4.1233  -4.0851  -3.9793  -3.8587  -3.8453  -3.8063
    -2.5409  -2.4310  -2.3335  -2.2563  -1.3089  -0.9223  -0.8702  -0.6190
    -0.2633  -0.1185   0.0214   0.1618   0.2577   0.3013   0.3233   0.4370
     0.5183   0.6268   0.6813   0.8322   1.1108   1.2008   1.2663   1.3696
     1.4319   1.4577   1.5552   1.5666   1.6423   1.6551   1.8057   1.9013
     2.1672   2.2221   2.2496   2.3000   2.3300   2.4007   2.4671   2.6535

     occupation numbers 
     1.0000   1.0000   1.0000   1.0000   1.0000   1.0000   1.0000   1.0000
     1.0000   1.0000   1.0000   1.0000   1.0000   1.0000   1.0000   1.0000
     1.0000   1.0000   1.0000   1.0000   1.0000   1.0000   1.0000   1.0000
     1.0000   1.0000   1.0000   1.0000   1.0000   1.0000   1.0000   1.0000
     1.0000   1.0000   1.0000   1.0000   1.0000   1.0000   1.0000   1.0000
     1.0000   1.0000   1.0000   1.0000   1.0000   1.0000   1.0000   1.0000
     1.0000   1.0000   1.0000   1.0000   1.0000   1.0000   1.0000   1.0000
     1.0000   1.0000   1.0000   1.0000   1.0000   1.0000   1.0000   1.0000
     1.0000   1.0000   1.0000   1.0000   0.0000   0.0000   0.0000   0.0000
     0.0000   0.0000   0.0000   0.0000   0.0000   0.0000   0.0000   0.0000
     0.0000   0.0000   0.0000   0.0000   0.0000   0.0000   0.0000   0.0000
     0.0000   0.0000   0.0000   0.0000   0.0000   0.0000   0.0000   0.0000
     0.0000   0.0000   0.0000   0.0000   0.0000   0.0000   0.0000   0.0000
     0.0000   0.0000   0.0000   0.0000   0.0000   0.0000   0.0000   0.0000
     0.0000   0.0000   0.0000   0.0000   0.0000   0.0000   0.0000   0.0000

          k = 0.1500 0.2598 0.0000 ( 59525 PWs)   bands (ev):

   -73.4619 -73.4615 -71.3727 -71.3723 -47.5885 -47.5856 -47.2964 -47.2955
   -46.9695 -46.9664 -45.3663 -45.3629 -45.0706 -45.0695 -44.8940 -44.8902
   -18.3421 -18.3171 -17.8457 -17.7843 -17.6571 -17.6489 -17.6175 -17.5823
   -17.5513 -17.5174 -17.3761 -17.3542 -11.6469 -11.6092 -11.3012 -11.2441
   -10.1759 -10.0442  -9.8292  -9.6997  -9.3608  -9.3394  -9.2560  -9.2358
    -8.9781  -8.8950  -8.5396  -8.4582  -8.0162  -7.9490  -7.9171  -7.8387
    -7.7073  -7.6793  -7.5487  -7.5142  -7.4882  -7.3825  -7.2313  -7.1576
    -6.9072  -6.8872  -6.7979  -6.6110  -6.5689  -6.4477  -6.3329  -6.1666
    -6.0579  -5.9662  -5.9423  -5.4652  -5.2392  -5.1326  -5.1056  -5.0670
    -4.9982  -4.9715  -4.1165  -4.0823  -3.9756  -3.8630  -3.8493  -3.8081
    -2.5395  -2.4320  -2.3343  -2.2576  -1.3059  -0.9172  -0.8915  -0.6537
    -0.2419  -0.0881   0.0400   0.1759   0.2447   0.3041   0.3158   0.4499
     0.4836   0.5973   0.6732   0.8252   1.1170   1.1977   1.2662   1.3670
     1.5014   1.5218   1.5958   1.6353   1.6835   1.7053   1.8408   1.9331
     2.2107   2.2740   2.2824   2.3228   2.3557   2.3931   2.4509   2.6299

     occupation numbers 
     1.0000   1.0000   1.0000   1.0000   1.0000   1.0000   1.0000   1.0000
     1.0000   1.0000   1.0000   1.0000   1.0000   1.0000   1.0000   1.0000
     1.0000   1.0000   1.0000   1.0000   1.0000   1.0000   1.0000   1.0000
     1.0000   1.0000   1.0000   1.0000   1.0000   1.0000   1.0000   1.0000
     1.0000   1.0000   1.0000   1.0000   1.0000   1.0000   1.0000   1.0000
     1.0000   1.0000   1.0000   1.0000   1.0000   1.0000   1.0000   1.0000
     1.0000   1.0000   1.0000   1.0000   1.0000   1.0000   1.0000   1.0000
     1.0000   1.0000   1.0000   1.0000   1.0000   1.0000   1.0000   1.0000
     1.0000   1.0000   1.0000   1.0000   0.0000   0.0000   0.0000   0.0000
     0.0000   0.0000   0.0000   0.0000   0.0000   0.0000   0.0000   0.0000
     0.0000   0.0000   0.0000   0.0000   0.0000   0.0000   0.0000   0.0000
     0.0000   0.0000   0.0000   0.0000   0.0000   0.0000   0.0000   0.0000
     0.0000   0.0000   0.0000   0.0000   0.0000   0.0000   0.0000   0.0000
     0.0000   0.0000   0.0000   0.0000   0.0000   0.0000   0.0000   0.0000
     0.0000   0.0000   0.0000   0.0000   0.0000   0.0000   0.0000   0.0000

          k = 0.1417 0.2454 0.0000 ( 59513 PWs)   bands (ev):

   -73.4619 -73.4615 -71.3727 -71.3723 -47.5885 -47.5856 -47.2964 -47.2955
   -46.9696 -46.9663 -45.3663 -45.3628 -45.0706 -45.0695 -44.8941 -44.8901
   -18.3564 -18.3316 -17.8506 -17.7946 -17.6520 -17.6373 -17.6140 -17.5675
   -17.5470 -17.5084 -17.3708 -17.3518 -11.6428 -11.6078 -11.2961 -11.2453
   -10.1801 -10.0473  -9.8332  -9.7032  -9.3578  -9.3364  -9.2577  -9.2353
    -8.9877  -8.8991  -8.5714  -8.4887  -8.0434  -7.9646  -7.9194  -7.8337
    -7.7153  -7.6926  -7.5704  -7.5258  -7.4875  -7.3990  -7.2162  -7.1492
    -6.9059  -6.8730  -6.7838  -6.6005  -6.5420  -6.4384  -6.3180  -6.1640
    -6.0657  -5.9367  -5.9157  -5.4677  -5.2290  -5.1272  -5.0981  -5.0686
    -5.0008  -4.9752  -4.1099  -4.0798  -3.9726  -3.8687  -3.8524  -3.8094
    -2.5367  -2.4322  -2.3351  -2.2592  -1.3041  -0.9190  -0.9125  -0.6918
    -0.2164  -0.0557   0.0540   0.1843   0.2315   0.2927   0.3220   0.4446
     0.4634   0.5636   0.6611   0.8133   1.1178   1.1876   1.2597   1.3553
     1.5676   1.5996   1.6341   1.7126   1.7262   1.7653   1.8851   1.9748
     2.2502   2.2943   2.3326   2.3403   2.3970   2.4081   2.4473   2.6035

     occupation numbers 
     1.0000   1.0000   1.0000   1.0000   1.0000   1.0000   1.0000   1.0000
     1.0000   1.0000   1.0000   1.0000   1.0000   1.0000   1.0000   1.0000
     1.0000   1.0000   1.0000   1.0000   1.0000   1.0000   1.0000   1.0000
     1.0000   1.0000   1.0000   1.0000   1.0000   1.0000   1.0000   1.0000
     1.0000   1.0000   1.0000   1.0000   1.0000   1.0000   1.0000   1.0000
     1.0000   1.0000   1.0000   1.0000   1.0000   1.0000   1.0000   1.0000
     1.0000   1.0000   1.0000   1.0000   1.0000   1.0000   1.0000   1.0000
     1.0000   1.0000   1.0000   1.0000   1.0000   1.0000   1.0000   1.0000
     1.0000   1.0000   1.0000   1.0000   0.0000   0.0000   0.0000   0.0000
     0.0000   0.0000   0.0000   0.0000   0.0000   0.0000   0.0000   0.0000
     0.0000   0.0000   0.0000   0.0000   0.0000   0.0000   0.0000   0.0000
     0.0000   0.0000   0.0000   0.0000   0.0000   0.0000   0.0000   0.0000
     0.0000   0.0000   0.0000   0.0000   0.0000   0.0000   0.0000   0.0000
     0.0000   0.0000   0.0000   0.0000   0.0000   0.0000   0.0000   0.0000
     0.0000   0.0000   0.0000   0.0000   0.0000   0.0000   0.0000   0.0000

          k = 0.1333 0.2309 0.0000 ( 59477 PWs)   bands (ev):

   -73.4619 -73.4615 -71.3728 -71.3723 -47.5886 -47.5855 -47.2964 -47.2955
   -46.9697 -46.9662 -45.3664 -45.3628 -45.0707 -45.0695 -44.8941 -44.8900
   -18.3700 -18.3454 -17.8552 -17.8044 -17.6469 -17.6276 -17.6091 -17.5530
   -17.5430 -17.4996 -17.3659 -17.3495 -11.6384 -11.6060 -11.2918 -11.2467
   -10.1835 -10.0492  -9.8373  -9.7065  -9.3530  -9.3323  -9.2584  -9.2341
    -8.9967  -8.9022  -8.6022  -8.5195  -8.0771  -7.9976  -7.9151  -7.8274
    -7.7236  -7.7071  -7.5971  -7.5404  -7.4848  -7.4073  -7.2005  -7.1462
    -6.9105  -6.8498  -6.7669  -6.5883  -6.5115  -6.4255  -6.3023  -6.1632
    -6.0733  -5.9096  -5.8825  -5.4722  -5.2176  -5.1238  -5.0907  -5.0691
    -5.0038  -4.9765  -4.1038  -4.0774  -3.9706  -3.8755  -3.8548  -3.8101
    -2.5327  -2.4317  -2.3361  -2.2609  -1.3035  -0.9490  -0.9108  -0.7319
    -0.1878  -0.0225   0.0619   0.1859   0.2178   0.2778   0.3301   0.4060
     0.4765   0.5296   0.6465   0.7982   1.1097   1.1743   1.2474   1.3377
     1.6327   1.6716   1.6874   1.7625   1.8007   1.8302   1.9375   2.0252
     2.2744   2.3245   2.3619   2.3723   2.4174   2.4422   2.4882   2.5767

     occupation numbers 
     1.0000   1.0000   1.0000   1.0000   1.0000   1.0000   1.0000   1.0000
     1.0000   1.0000   1.0000   1.0000   1.0000   1.0000   1.0000   1.0000
     1.0000   1.0000   1.0000   1.0000   1.0000   1.0000   1.0000   1.0000
     1.0000   1.0000   1.0000   1.0000   1.0000   1.0000   1.0000   1.0000
     1.0000   1.0000   1.0000   1.0000   1.0000   1.0000   1.0000   1.0000
     1.0000   1.0000   1.0000   1.0000   1.0000   1.0000   1.0000   1.0000
     1.0000   1.0000   1.0000   1.0000   1.0000   1.0000   1.0000   1.0000
     1.0000   1.0000   1.0000   1.0000   1.0000   1.0000   1.0000   1.0000
     1.0000   1.0000   1.0000   1.0000   0.0000   0.0000   0.0000   0.0000
     0.0000   0.0000   0.0000   0.0000   0.0000   0.0000   0.0000   0.0000
     0.0000   0.0000   0.0000   0.0000   0.0000   0.0000   0.0000   0.0000
     0.0000   0.0000   0.0000   0.0000   0.0000   0.0000   0.0000   0.0000
     0.0000   0.0000   0.0000   0.0000   0.0000   0.0000   0.0000   0.0000
     0.0000   0.0000   0.0000   0.0000   0.0000   0.0000   0.0000   0.0000
     0.0000   0.0000   0.0000   0.0000   0.0000   0.0000   0.0000   0.0000

          k = 0.1250 0.2165 0.0000 ( 59509 PWs)   bands (ev):

   -73.4619 -73.4615 -71.3728 -71.3723 -47.5886 -47.5855 -47.2964 -47.2955
   -46.9697 -46.9662 -45.3664 -45.3627 -45.0707 -45.0695 -44.8942 -44.8900
   -18.3830 -18.3585 -17.8596 -17.8138 -17.6420 -17.6209 -17.6018 -17.5396
   -17.5387 -17.4911 -17.3614 -17.3474 -11.6337 -11.6038 -11.2884 -11.2483
   -10.1863 -10.0501  -9.8413  -9.7096  -9.3464  -9.3272  -9.2581  -9.2324
    -9.0050  -8.9043  -8.6317  -8.5499  -8.1137  -8.0353  -7.9171  -7.8248
    -7.7363  -7.7192  -7.6230  -7.5504  -7.4838  -7.4110  -7.1856  -7.1485
    -6.9129  -6.8273  -6.7483  -6.5725  -6.4782  -6.4092  -6.2861  -6.1638
    -6.0807  -5.8823  -5.8468  -5.4784  -5.2052  -5.1226  -5.0841  -5.0683
    -5.0075  -4.9741  -4.0980  -4.0750  -3.9697  -3.8830  -3.8565  -3.8104
    -2.5275  -2.4304  -2.3371  -2.2629  -1.3039  -0.9826  -0.9099  -0.7734
    -0.1570   0.0096   0.0628   0.1802   0.2032   0.2596   0.3382   0.3714
     0.4890   0.5011   0.6307   0.7814   1.0900   1.1621   1.2290   1.3168
     1.6937   1.7152   1.7757   1.8048   1.8807   1.9020   1.9968   2.0828
     2.2940   2.3605   2.3745   2.3956   2.4648   2.4864   2.5450   2.5557

     occupation numbers 
     1.0000   1.0000   1.0000   1.0000   1.0000   1.0000   1.0000   1.0000
     1.0000   1.0000   1.0000   1.0000   1.0000   1.0000   1.0000   1.0000
     1.0000   1.0000   1.0000   1.0000   1.0000   1.0000   1.0000   1.0000
     1.0000   1.0000   1.0000   1.0000   1.0000   1.0000   1.0000   1.0000
     1.0000   1.0000   1.0000   1.0000   1.0000   1.0000   1.0000   1.0000
     1.0000   1.0000   1.0000   1.0000   1.0000   1.0000   1.0000   1.0000
     1.0000   1.0000   1.0000   1.0000   1.0000   1.0000   1.0000   1.0000
     1.0000   1.0000   1.0000   1.0000   1.0000   1.0000   1.0000   1.0000
     1.0000   1.0000   1.0000   1.0000   0.0000   0.0000   0.0000   0.0000
     0.0000   0.0000   0.0000   0.0000   0.0000   0.0000   0.0000   0.0000
     0.0000   0.0000   0.0000   0.0000   0.0000   0.0000   0.0000   0.0000
     0.0000   0.0000   0.0000   0.0000   0.0000   0.0000   0.0000   0.0000
     0.0000   0.0000   0.0000   0.0000   0.0000   0.0000   0.0000   0.0000
     0.0000   0.0000   0.0000   0.0000   0.0000   0.0000   0.0000   0.0000
     0.0000   0.0000   0.0000   0.0000   0.0000   0.0000   0.0000   0.0000

          k = 0.1167 0.2021 0.0000 ( 59499 PWs)   bands (ev):

   -73.4619 -73.4615 -71.3728 -71.3723 -47.5887 -47.5854 -47.2964 -47.2955
   -46.9698 -46.9661 -45.3665 -45.3627 -45.0707 -45.0694 -44.8943 -44.8899
   -18.3952 -18.3709 -17.8638 -17.8226 -17.6372 -17.6168 -17.5927 -17.5358
   -17.5255 -17.4829 -17.3573 -17.3456 -11.6288 -11.6013 -11.2859 -11.2499
   -10.1883 -10.0501  -9.8453  -9.7125  -9.3381  -9.3215  -9.2567  -9.2304
    -9.0130  -8.9054  -8.6592  -8.5794  -8.1520  -8.0750  -7.9267  -7.8295
    -7.7610  -7.7230  -7.6416  -7.5551  -7.4833  -7.4130  -7.1728  -7.1553
    -6.9124  -6.8075  -6.7293  -6.5510  -6.4432  -6.3903  -6.2697  -6.1650
    -6.0876  -5.8537  -5.8111  -5.4861  -5.1919  -5.1236  -5.0791  -5.0659
    -5.0119  -4.9677  -4.0927  -4.0728  -3.9698  -3.8911  -3.8576  -3.8103
    -2.5212  -2.4284  -2.3383  -2.2648  -1.3053  -1.0183  -0.9102  -0.8156
    -0.1251   0.0289   0.0649   0.1657   0.1878   0.2379   0.3398   0.3516
     0.4761   0.5065   0.6147   0.7643   1.0605   1.1503   1.2050   1.2942
     1.7428   1.7646   1.8461   1.8703   1.9459   1.9882   2.0619   2.1460
     2.3195   2.3655   2.4027   2.4411   2.5138   2.5243   2.5523   2.6115

     occupation numbers 
     1.0000   1.0000   1.0000   1.0000   1.0000   1.0000   1.0000   1.0000
     1.0000   1.0000   1.0000   1.0000   1.0000   1.0000   1.0000   1.0000
     1.0000   1.0000   1.0000   1.0000   1.0000   1.0000   1.0000   1.0000
     1.0000   1.0000   1.0000   1.0000   1.0000   1.0000   1.0000   1.0000
     1.0000   1.0000   1.0000   1.0000   1.0000   1.0000   1.0000   1.0000
     1.0000   1.0000   1.0000   1.0000   1.0000   1.0000   1.0000   1.0000
     1.0000   1.0000   1.0000   1.0000   1.0000   1.0000   1.0000   1.0000
     1.0000   1.0000   1.0000   1.0000   1.0000   1.0000   1.0000   1.0000
     1.0000   1.0000   1.0000   1.0000   0.0000   0.0000   0.0000   0.0000
     0.0000   0.0000   0.0000   0.0000   0.0000   0.0000   0.0000   0.0000
     0.0000   0.0000   0.0000   0.0000   0.0000   0.0000   0.0000   0.0000
     0.0000   0.0000   0.0000   0.0000   0.0000   0.0000   0.0000   0.0000
     0.0000   0.0000   0.0000   0.0000   0.0000   0.0000   0.0000   0.0000
     0.0000   0.0000   0.0000   0.0000   0.0000   0.0000   0.0000   0.0000
     0.0000   0.0000   0.0000   0.0000   0.0000   0.0000   0.0000   0.0000

          k = 0.1083 0.1876 0.0000 ( 59473 PWs)   bands (ev):

   -73.4619 -73.4615 -71.3728 -71.3723 -47.5887 -47.5854 -47.2965 -47.2955
   -46.9698 -46.9661 -45.3665 -45.3626 -45.0707 -45.0694 -44.8943 -44.8898
   -18.4067 -18.3825 -17.8677 -17.8310 -17.6327 -17.6139 -17.5831 -17.5326
   -17.5126 -17.4750 -17.3535 -17.3439 -11.6237 -11.5985 -11.2844 -11.2515
   -10.1898 -10.0492  -9.8492  -9.7152  -9.3281  -9.3155  -9.2540  -9.2284
    -9.0206  -8.9055  -8.6844  -8.6072  -8.1912  -8.1157  -7.9432  -7.8418
    -7.7930  -7.7271  -7.6476  -7.5555  -7.4825  -7.4146  -7.1660  -7.1618
    -6.9094  -6.7910  -6.7114  -6.5233  -6.4082  -6.3694  -6.2533  -6.1663
    -6.0937  -5.8236  -5.7762  -5.4950  -5.1781  -5.1262  -5.0762  -5.0627
    -5.0164  -4.9574  -4.0880  -4.0705  -3.9710  -3.8996  -3.8582  -3.8100
    -2.5140  -2.4257  -2.3397  -2.2667  -1.3075  -1.0553  -0.9116  -0.8577
    -0.0940   0.0134   0.0883   0.1407   0.1729   0.2165   0.3255   0.3577
     0.4631   0.5212   0.5995   0.7481   1.0252   1.1363   1.1769   1.2700
     1.7847   1.8129   1.8911   1.9652   1.9992   2.0804   2.1319   2.2130
     2.3459   2.3770   2.4412   2.4893   2.5149   2.5694   2.6043   2.6756

     occupation numbers 
     1.0000   1.0000   1.0000   1.0000   1.0000   1.0000   1.0000   1.0000
     1.0000   1.0000   1.0000   1.0000   1.0000   1.0000   1.0000   1.0000
     1.0000   1.0000   1.0000   1.0000   1.0000   1.0000   1.0000   1.0000
     1.0000   1.0000   1.0000   1.0000   1.0000   1.0000   1.0000   1.0000
     1.0000   1.0000   1.0000   1.0000   1.0000   1.0000   1.0000   1.0000
     1.0000   1.0000   1.0000   1.0000   1.0000   1.0000   1.0000   1.0000
     1.0000   1.0000   1.0000   1.0000   1.0000   1.0000   1.0000   1.0000
     1.0000   1.0000   1.0000   1.0000   1.0000   1.0000   1.0000   1.0000
     1.0000   1.0000   1.0000   1.0000   0.0000   0.0000   0.0000   0.0000
     0.0000   0.0000   0.0000   0.0000   0.0000   0.0000   0.0000   0.0000
     0.0000   0.0000   0.0000   0.0000   0.0000   0.0000   0.0000   0.0000
     0.0000   0.0000   0.0000   0.0000   0.0000   0.0000   0.0000   0.0000
     0.0000   0.0000   0.0000   0.0000   0.0000   0.0000   0.0000   0.0000
     0.0000   0.0000   0.0000   0.0000   0.0000   0.0000   0.0000   0.0000
     0.0000   0.0000   0.0000   0.0000   0.0000   0.0000   0.0000   0.0000

          k = 0.1000 0.1732 0.0000 ( 59461 PWs)   bands (ev):

   -73.4619 -73.4615 -71.3728 -71.3723 -47.5888 -47.5854 -47.2965 -47.2955
   -46.9699 -46.9660 -45.3666 -45.3626 -45.0707 -45.0694 -44.8944 -44.8898
   -18.4175 -18.3933 -17.8713 -17.8389 -17.6284 -17.6116 -17.5735 -17.5296
   -17.5002 -17.4674 -17.3502 -17.3425 -11.6185 -11.5955 -11.2836 -11.2532
   -10.1906 -10.0475  -9.8530  -9.7177  -9.3168  -9.3094  -9.2498  -9.2264
    -9.0279  -8.9048  -8.7067  -8.6327  -8.2306  -8.1570  -7.9651  -7.8611
    -7.8263  -7.7364  -7.6409  -7.5526  -7.4812  -7.4160  -7.1780  -7.1544
    -6.9044  -6.7777  -6.6948  -6.4908  -6.3755  -6.3462  -6.2372  -6.1672
    -6.0986  -5.7924  -5.7431  -5.5046  -5.1643  -5.1300  -5.0750  -5.0595
    -5.0201  -4.9438  -4.0839  -4.0681  -3.9732  -3.9084  -3.8583  -3.8093
    -2.5060  -2.4224  -2.3414  -2.2684  -1.3105  -1.0927  -0.9141  -0.8993
    -0.0728  -0.0117   0.0917   0.1300   0.1600   0.1993   0.3178   0.3657
     0.4575   0.5356   0.5862   0.7343   0.9866   1.1181   1.1469   1.2445
     1.8262   1.8511   1.9379   2.0391   2.0619   2.1728   2.2064   2.2823
     2.3678   2.4117   2.4788   2.5196   2.5389   2.6107   2.6629   2.7391

     occupation numbers 
     1.0000   1.0000   1.0000   1.0000   1.0000   1.0000   1.0000   1.0000
     1.0000   1.0000   1.0000   1.0000   1.0000   1.0000   1.0000   1.0000
     1.0000   1.0000   1.0000   1.0000   1.0000   1.0000   1.0000   1.0000
     1.0000   1.0000   1.0000   1.0000   1.0000   1.0000   1.0000   1.0000
     1.0000   1.0000   1.0000   1.0000   1.0000   1.0000   1.0000   1.0000
     1.0000   1.0000   1.0000   1.0000   1.0000   1.0000   1.0000   1.0000
     1.0000   1.0000   1.0000   1.0000   1.0000   1.0000   1.0000   1.0000
     1.0000   1.0000   1.0000   1.0000   1.0000   1.0000   1.0000   1.0000
     1.0000   1.0000   1.0000   1.0000   0.0000   0.0000   0.0000   0.0000
     0.0000   0.0000   0.0000   0.0000   0.0000   0.0000   0.0000   0.0000
     0.0000   0.0000   0.0000   0.0000   0.0000   0.0000   0.0000   0.0000
     0.0000   0.0000   0.0000   0.0000   0.0000   0.0000   0.0000   0.0000
     0.0000   0.0000   0.0000   0.0000   0.0000   0.0000   0.0000   0.0000
     0.0000   0.0000   0.0000   0.0000   0.0000   0.0000   0.0000   0.0000
     0.0000   0.0000   0.0000   0.0000   0.0000   0.0000   0.0000   0.0000

          k = 0.0917 0.1588 0.0000 ( 59469 PWs)   bands (ev):

   -73.4619 -73.4615 -71.3728 -71.3723 -47.5888 -47.5853 -47.2965 -47.2955
   -46.9699 -46.9660 -45.3666 -45.3625 -45.0707 -45.0694 -44.8944 -44.8897
   -18.4274 -18.4034 -17.8747 -17.8462 -17.6243 -17.6097 -17.5643 -17.5269
   -17.4885 -17.4603 -17.3474 -17.3413 -11.6132 -11.5923 -11.2836 -11.2548
   -10.1911 -10.0451  -9.8566  -9.7200  -9.3075  -9.3008  -9.2440  -9.2247
    -9.0351  -8.9034  -8.7260  -8.6555  -8.2696  -8.1982  -7.9910  -7.8899
    -7.8540  -7.7496  -7.6267  -7.5475  -7.4794  -7.4175  -7.1918  -7.1491
    -6.8978  -6.7667  -6.6795  -6.4560  -6.3479  -6.3196  -6.2214  -6.1671
    -6.1017  -5.7602  -5.7120  -5.5147  -5.1510  -5.1345  -5.0757  -5.0569
    -5.0222  -4.9276  -4.0804  -4.0656  -3.9763  -3.9175  -3.8579  -3.8085
    -2.4975  -2.4185  -2.3434  -2.2697  -1.3141  -1.1299  -0.9402  -0.9171
    -0.0933  -0.0063   0.0488   0.1479   0.1595   0.1865   0.3163   0.3731
     0.4571   0.5484   0.5754   0.7242   0.9465   1.0939   1.1182   1.2180
     1.8650   1.8803   1.9870   2.0631   2.1582   2.2599   2.2870   2.3515
     2.3980   2.4568   2.5088   2.5541   2.5748   2.6384   2.7151   2.7423

     occupation numbers 
     1.0000   1.0000   1.0000   1.0000   1.0000   1.0000   1.0000   1.0000
     1.0000   1.0000   1.0000   1.0000   1.0000   1.0000   1.0000   1.0000
     1.0000   1.0000   1.0000   1.0000   1.0000   1.0000   1.0000   1.0000
     1.0000   1.0000   1.0000   1.0000   1.0000   1.0000   1.0000   1.0000
     1.0000   1.0000   1.0000   1.0000   1.0000   1.0000   1.0000   1.0000
     1.0000   1.0000   1.0000   1.0000   1.0000   1.0000   1.0000   1.0000
     1.0000   1.0000   1.0000   1.0000   1.0000   1.0000   1.0000   1.0000
     1.0000   1.0000   1.0000   1.0000   1.0000   1.0000   1.0000   1.0000
     1.0000   1.0000   1.0000   1.0000   0.0000   0.0000   0.0000   0.0000
     0.0000   0.0000   0.0000   0.0000   0.0000   0.0000   0.0000   0.0000
     0.0000   0.0000   0.0000   0.0000   0.0000   0.0000   0.0000   0.0000
     0.0000   0.0000   0.0000   0.0000   0.0000   0.0000   0.0000   0.0000
     0.0000   0.0000   0.0000   0.0000   0.0000   0.0000   0.0000   0.0000
     0.0000   0.0000   0.0000   0.0000   0.0000   0.0000   0.0000   0.0000
     0.0000   0.0000   0.0000   0.0000   0.0000   0.0000   0.0000   0.0000

          k = 0.0833 0.1443 0.0000 ( 59485 PWs)   bands (ev):

   -73.4619 -73.4615 -71.3728 -71.3723 -47.5888 -47.5853 -47.2965 -47.2954
   -46.9700 -46.9660 -45.3667 -45.3625 -45.0707 -45.0694 -44.8945 -44.8897
   -18.4366 -18.4126 -17.8778 -17.8529 -17.6205 -17.6081 -17.5558 -17.5244
   -17.4774 -17.4535 -17.3449 -17.3403 -11.6079 -11.5890 -11.2843 -11.2565
   -10.1910 -10.0421  -9.8601  -9.7221  -9.3033  -9.2872  -9.2365  -9.2232
    -9.0421  -8.9013  -8.7419  -8.6752  -8.3079  -8.2391  -8.0193  -7.9264
    -7.8749  -7.7644  -7.6093  -7.5410  -7.4772  -7.4190  -7.2063  -7.1460
    -6.8901  -6.7570  -6.6653  -6.4224  -6.3260  -6.2907  -6.2056  -6.1658
    -6.1023  -5.7275  -5.6836  -5.5248  -5.1405  -5.1375  -5.0780  -5.0550
    -5.0224  -4.9096  -4.0776  -4.0630  -3.9801  -3.9267  -3.8570  -3.8076
    -2.4886  -2.4143  -2.3458  -2.2705  -1.3180  -1.1663  -0.9793  -0.9209
    -0.1401  -0.0147   0.0344   0.1389   0.1712   0.1943   0.3187   0.3791
     0.4602   0.5575   0.5683   0.7195   0.9058   1.0639   1.0924   1.1911
     1.8813   1.9210   2.0378   2.0707   2.2518   2.3377   2.3728   2.4166
     2.4425   2.5049   2.5421   2.5928   2.6027   2.6488   2.6783   2.7622

     occupation numbers 
     1.0000   1.0000   1.0000   1.0000   1.0000   1.0000   1.0000   1.0000
     1.0000   1.0000   1.0000   1.0000   1.0000   1.0000   1.0000   1.0000
     1.0000   1.0000   1.0000   1.0000   1.0000   1.0000   1.0000   1.0000
     1.0000   1.0000   1.0000   1.0000   1.0000   1.0000   1.0000   1.0000
     1.0000   1.0000   1.0000   1.0000   1.0000   1.0000   1.0000   1.0000
     1.0000   1.0000   1.0000   1.0000   1.0000   1.0000   1.0000   1.0000
     1.0000   1.0000   1.0000   1.0000   1.0000   1.0000   1.0000   1.0000
     1.0000   1.0000   1.0000   1.0000   1.0000   1.0000   1.0000   1.0000
     1.0000   1.0000   1.0000   1.0000   0.0000   0.0000   0.0000   0.0000
     0.0000   0.0000   0.0000   0.0000   0.0000   0.0000   0.0000   0.0000
     0.0000   0.0000   0.0000   0.0000   0.0000   0.0000   0.0000   0.0000
     0.0000   0.0000   0.0000   0.0000   0.0000   0.0000   0.0000   0.0000
     0.0000   0.0000   0.0000   0.0000   0.0000   0.0000   0.0000   0.0000
     0.0000   0.0000   0.0000   0.0000   0.0000   0.0000   0.0000   0.0000
     0.0000   0.0000   0.0000   0.0000   0.0000   0.0000   0.0000   0.0000

          k = 0.0750 0.1299 0.0000 ( 59501 PWs)   bands (ev):

   -73.4619 -73.4615 -71.3728 -71.3723 -47.5889 -47.5853 -47.2965 -47.2954
   -46.9700 -46.9659 -45.3667 -45.3624 -45.0708 -45.0694 -44.8945 -44.8896
   -18.4450 -18.4210 -17.8806 -17.8591 -17.6169 -17.6066 -17.5479 -17.5222
   -17.4670 -17.4472 -17.3429 -17.3395 -11.6028 -11.5857 -11.2855 -11.2582
   -10.1907 -10.0387  -9.8634  -9.7240  -9.3015  -9.2718  -9.2286  -9.2207
    -9.0490  -8.8989  -8.7543  -8.6916  -8.3450  -8.2789  -8.0488  -7.9649
    -7.8930  -7.7795  -7.5908  -7.5337  -7.4747  -7.4205  -7.2213  -7.1447
    -6.8818  -6.7481  -6.6521  -6.3931  -6.3076  -6.2624  -6.1897  -6.1631
    -6.0997  -5.6948  -5.6582  -5.5343  -5.1446  -5.1282  -5.0811  -5.0535
    -5.0209  -4.8903  -4.0755  -4.0601  -3.9842  -3.9360  -3.8560  -3.8066
    -2.4795  -2.4099  -2.3488  -2.2705  -1.3222  -1.2012  -1.0164  -0.9251
    -0.1916  -0.0655   0.0647   0.1304   0.1623   0.2237   0.3235   0.3833
     0.4655   0.5607   0.5663   0.7214   0.8652   1.0312   1.0683   1.1644
     1.8823   1.9685   2.0639   2.0906   2.3380   2.4082   2.4521   2.4744
     2.4990   2.5536   2.5788   2.5946   2.6368   2.6470   2.6571   2.7254

     occupation numbers 
     1.0000   1.0000   1.0000   1.0000   1.0000   1.0000   1.0000   1.0000
     1.0000   1.0000   1.0000   1.0000   1.0000   1.0000   1.0000   1.0000
     1.0000   1.0000   1.0000   1.0000   1.0000   1.0000   1.0000   1.0000
     1.0000   1.0000   1.0000   1.0000   1.0000   1.0000   1.0000   1.0000
     1.0000   1.0000   1.0000   1.0000   1.0000   1.0000   1.0000   1.0000
     1.0000   1.0000   1.0000   1.0000   1.0000   1.0000   1.0000   1.0000
     1.0000   1.0000   1.0000   1.0000   1.0000   1.0000   1.0000   1.0000
     1.0000   1.0000   1.0000   1.0000   1.0000   1.0000   1.0000   1.0000
     1.0000   1.0000   1.0000   1.0000   0.0000   0.0000   0.0000   0.0000
     0.0000   0.0000   0.0000   0.0000   0.0000   0.0000   0.0000   0.0000
     0.0000   0.0000   0.0000   0.0000   0.0000   0.0000   0.0000   0.0000
     0.0000   0.0000   0.0000   0.0000   0.0000   0.0000   0.0000   0.0000
     0.0000   0.0000   0.0000   0.0000   0.0000   0.0000   0.0000   0.0000
     0.0000   0.0000   0.0000   0.0000   0.0000   0.0000   0.0000   0.0000
     0.0000   0.0000   0.0000   0.0000   0.0000   0.0000   0.0000   0.0000

          k = 0.0667 0.1155 0.0000 ( 59537 PWs)   bands (ev):

   -73.4619 -73.4615 -71.3728 -71.3723 -47.5889 -47.5852 -47.2965 -47.2954
   -46.9700 -46.9659 -45.3667 -45.3624 -45.0708 -45.0694 -44.8946 -44.8896
   -18.4525 -18.4285 -17.8832 -17.8646 -17.6137 -17.6054 -17.5407 -17.5202
   -17.4575 -17.4414 -17.3412 -17.3389 -11.5979 -11.5823 -11.2870 -11.2599
   -10.1901 -10.0350  -9.8664  -9.7257  -9.3014  -9.2559  -9.2252  -9.2126
    -9.0556  -8.8961  -8.7631  -8.7048  -8.3805  -8.3171  -8.0784  -8.0027
    -7.9098  -7.7945  -7.5725  -7.5257  -7.4722  -7.4219  -7.2363  -7.1449
    -6.8734  -6.7393  -6.6399  -6.3711  -6.2908  -6.2368  -6.1736  -6.1584
    -6.0935  -5.6627  -5.6365  -5.5422  -5.1494  -5.1218  -5.0832  -5.0523
    -5.0181  -4.8706  -4.0742  -4.0569  -3.9885  -3.9453  -3.8548  -3.8056
    -2.4702  -2.4054  -2.3524  -2.2698  -1.3264  -1.2343  -1.0512  -0.9294
    -0.2429  -0.1180   0.0982   0.1228   0.1536   0.2522   0.3297   0.3858
     0.4722   0.5614   0.5660   0.7297   0.8253   0.9982   1.0451   1.1387
     1.8758   2.0176   2.0491   2.1427   2.4039   2.4698   2.4969   2.5283
     2.5544   2.5851   2.5989   2.6092   2.6316   2.6618   2.6993   2.7223

     occupation numbers 
     1.0000   1.0000   1.0000   1.0000   1.0000   1.0000   1.0000   1.0000
     1.0000   1.0000   1.0000   1.0000   1.0000   1.0000   1.0000   1.0000
     1.0000   1.0000   1.0000   1.0000   1.0000   1.0000   1.0000   1.0000
     1.0000   1.0000   1.0000   1.0000   1.0000   1.0000   1.0000   1.0000
     1.0000   1.0000   1.0000   1.0000   1.0000   1.0000   1.0000   1.0000
     1.0000   1.0000   1.0000   1.0000   1.0000   1.0000   1.0000   1.0000
     1.0000   1.0000   1.0000   1.0000   1.0000   1.0000   1.0000   1.0000
     1.0000   1.0000   1.0000   1.0000   1.0000   1.0000   1.0000   1.0000
     1.0000   1.0000   1.0000   1.0000   0.0000   0.0000   0.0000   0.0000
     0.0000   0.0000   0.0000   0.0000   0.0000   0.0000   0.0000   0.0000
     0.0000   0.0000   0.0000   0.0000   0.0000   0.0000   0.0000   0.0000
     0.0000   0.0000   0.0000   0.0000   0.0000   0.0000   0.0000   0.0000
     0.0000   0.0000   0.0000   0.0000   0.0000   0.0000   0.0000   0.0000
     0.0000   0.0000   0.0000   0.0000   0.0000   0.0000   0.0000   0.0000
     0.0000   0.0000   0.0000   0.0000   0.0000   0.0000   0.0000   0.0000

          k = 0.0583 0.1010 0.0000 ( 59527 PWs)   bands (ev):

   -73.4619 -73.4615 -71.3728 -71.3723 -47.5889 -47.5852 -47.2965 -47.2954
   -46.9700 -46.9659 -45.3668 -45.3624 -45.0708 -45.0693 -44.8946 -44.8896
   -18.4591 -18.4352 -17.8854 -17.8695 -17.6108 -17.6043 -17.5343 -17.5185
   -17.4487 -17.4361 -17.3400 -17.3385 -11.5933 -11.5790 -11.2888 -11.2615
   -10.1893 -10.0312  -9.8691  -9.7272  -9.3028  -9.2410  -9.2236  -9.2008
    -9.0621  -8.8932  -8.7684  -8.7152  -8.4140  -8.3530  -8.1071  -8.0385
    -7.9253  -7.8088  -7.5551  -7.5172  -7.4697  -7.4233  -7.2512  -7.1460
    -6.8651  -6.7306  -6.6289  -6.3573  -6.2757  -6.2152  -6.1581  -6.1503
    -6.0841  -5.6324  -5.6198  -5.5467  -5.1539  -5.1209  -5.0821  -5.0514
    -5.0146  -4.8510  -4.0736  -4.0534  -3.9926  -3.9545  -3.8535  -3.8045
    -2.4611  -2.4010  -2.3566  -2.2683  -1.3306  -1.2648  -1.0830  -0.9337
    -0.2915  -0.1681   0.1154   0.1314   0.1469   0.2778   0.3368   0.3869
     0.4799   0.5614   0.5661   0.7425   0.7869   0.9661   1.0231   1.1147
     1.8652   2.0283   2.0673   2.1939   2.4229   2.4981   2.5166   2.5517
     2.5808   2.6152   2.6278   2.6557   2.6591   2.7050   2.7479   2.7624

     occupation numbers 
     1.0000   1.0000   1.0000   1.0000   1.0000   1.0000   1.0000   1.0000
     1.0000   1.0000   1.0000   1.0000   1.0000   1.0000   1.0000   1.0000
     1.0000   1.0000   1.0000   1.0000   1.0000   1.0000   1.0000   1.0000
     1.0000   1.0000   1.0000   1.0000   1.0000   1.0000   1.0000   1.0000
     1.0000   1.0000   1.0000   1.0000   1.0000   1.0000   1.0000   1.0000
     1.0000   1.0000   1.0000   1.0000   1.0000   1.0000   1.0000   1.0000
     1.0000   1.0000   1.0000   1.0000   1.0000   1.0000   1.0000   1.0000
     1.0000   1.0000   1.0000   1.0000   1.0000   1.0000   1.0000   1.0000
     1.0000   1.0000   1.0000   1.0000   0.0000   0.0000   0.0000   0.0000
     0.0000   0.0000   0.0000   0.0000   0.0000   0.0000   0.0000   0.0000
     0.0000   0.0000   0.0000   0.0000   0.0000   0.0000   0.0000   0.0000
     0.0000   0.0000   0.0000   0.0000   0.0000   0.0000   0.0000   0.0000
     0.0000   0.0000   0.0000   0.0000   0.0000   0.0000   0.0000   0.0000
     0.0000   0.0000   0.0000   0.0000   0.0000   0.0000   0.0000   0.0000
     0.0000   0.0000   0.0000   0.0000   0.0000   0.0000   0.0000   0.0000

          k = 0.0500 0.0866 0.0000 ( 59513 PWs)   bands (ev):

   -73.4619 -73.4615 -71.3728 -71.3723 -47.5889 -47.5852 -47.2965 -47.2954
   -46.9701 -46.9658 -45.3668 -45.3623 -45.0708 -45.0693 -44.8946 -44.8895
   -18.4649 -18.4410 -17.8874 -17.8738 -17.6083 -17.6033 -17.5287 -17.5170
   -17.4409 -17.4314 -17.3391 -17.3382 -11.5892 -11.5758 -11.2906 -11.2632
   -10.1884 -10.0273  -9.8716  -9.7286  -9.3052  -9.2335  -9.2155  -9.1880
    -9.0684  -8.8899  -8.7704  -8.7235  -8.4450  -8.3858  -8.1343  -8.0714
    -7.9395  -7.8221  -7.5393  -7.5081  -7.4675  -7.4247  -7.2656  -7.1478
    -6.8573  -6.7220  -6.6190  -6.3503  -6.2634  -6.1981  -6.1442  -6.1381
    -6.0721  -5.6134  -5.6011  -5.5456  -5.1581  -5.1248  -5.0781  -5.0506
    -5.0107  -4.8323  -4.0738  -4.0496  -3.9964  -3.9635  -3.8523  -3.8035
    -2.4520  -2.3970  -2.3615  -2.2661  -1.3346  -1.2924  -1.1116  -0.9378
    -0.3360  -0.2141   0.1096   0.1373   0.1669   0.2994   0.3443   0.3878
     0.4884   0.5570   0.5712   0.7444   0.7636   0.9355   1.0027   1.0929
     1.8529   2.0058   2.1150   2.2429   2.4007   2.4952   2.5155   2.5336
     2.6166   2.6691   2.6752   2.7015   2.7186   2.7561   2.7942   2.8288

     occupation numbers 
     1.0000   1.0000   1.0000   1.0000   1.0000   1.0000   1.0000   1.0000
     1.0000   1.0000   1.0000   1.0000   1.0000   1.0000   1.0000   1.0000
     1.0000   1.0000   1.0000   1.0000   1.0000   1.0000   1.0000   1.0000
     1.0000   1.0000   1.0000   1.0000   1.0000   1.0000   1.0000   1.0000
     1.0000   1.0000   1.0000   1.0000   1.0000   1.0000   1.0000   1.0000
     1.0000   1.0000   1.0000   1.0000   1.0000   1.0000   1.0000   1.0000
     1.0000   1.0000   1.0000   1.0000   1.0000   1.0000   1.0000   1.0000
     1.0000   1.0000   1.0000   1.0000   1.0000   1.0000   1.0000   1.0000
     1.0000   1.0000   1.0000   1.0000   0.0000   0.0000   0.0000   0.0000
     0.0000   0.0000   0.0000   0.0000   0.0000   0.0000   0.0000   0.0000
     0.0000   0.0000   0.0000   0.0000   0.0000   0.0000   0.0000   0.0000
     0.0000   0.0000   0.0000   0.0000   0.0000   0.0000   0.0000   0.0000
     0.0000   0.0000   0.0000   0.0000   0.0000   0.0000   0.0000   0.0000
     0.0000   0.0000   0.0000   0.0000   0.0000   0.0000   0.0000   0.0000
     0.0000   0.0000   0.0000   0.0000   0.0000   0.0000   0.0000   0.0000

          k = 0.0417 0.0722 0.0000 ( 59499 PWs)   bands (ev):

   -73.4619 -73.4615 -71.3728 -71.3723 -47.5890 -47.5852 -47.2965 -47.2954
   -46.9701 -46.9658 -45.3668 -45.3623 -45.0708 -45.0693 -44.8946 -44.8895
   -18.4699 -18.4459 -17.8890 -17.8775 -17.6061 -17.6025 -17.5239 -17.5157
   -17.4341 -17.4273 -17.3386 -17.3379 -11.5856 -11.5729 -11.2924 -11.2647
   -10.1875 -10.0237  -9.8737  -9.7297  -9.3082  -9.2336  -9.2006  -9.1753
    -9.0747  -8.8863  -8.7699  -8.7305  -8.4729  -8.4147  -8.1591  -8.1007
    -7.9521  -7.8340  -7.5261  -7.4978  -7.4657  -7.4261  -7.2794  -7.1498
    -6.8502  -6.7137  -6.6105  -6.3478  -6.2549  -6.1848  -6.1309  -6.1247
    -6.0587  -5.6111  -5.5757  -5.5388  -5.1617  -5.1311  -5.0732  -5.0499
    -5.0069  -4.8152  -4.0746  -4.0454  -3.9997  -3.9722  -3.8511  -3.8026
    -2.4431  -2.3935  -2.3669  -2.2634  -1.3381  -1.3166  -1.1365  -0.9416
    -0.3753  -0.2549   0.1045   0.1318   0.1978   0.3163   0.3512   0.3900
     0.4975   0.5518   0.5780   0.7112   0.7781   0.9072   0.9846   1.0737
     1.8404   1.9832   2.1598   2.2879   2.3693   2.4821   2.4918   2.5171
     2.6638   2.7143   2.7187   2.7514   2.7820   2.8087   2.8374   2.9031

     occupation numbers 
     1.0000   1.0000   1.0000   1.0000   1.0000   1.0000   1.0000   1.0000
     1.0000   1.0000   1.0000   1.0000   1.0000   1.0000   1.0000   1.0000
     1.0000   1.0000   1.0000   1.0000   1.0000   1.0000   1.0000   1.0000
     1.0000   1.0000   1.0000   1.0000   1.0000   1.0000   1.0000   1.0000
     1.0000   1.0000   1.0000   1.0000   1.0000   1.0000   1.0000   1.0000
     1.0000   1.0000   1.0000   1.0000   1.0000   1.0000   1.0000   1.0000
     1.0000   1.0000   1.0000   1.0000   1.0000   1.0000   1.0000   1.0000
     1.0000   1.0000   1.0000   1.0000   1.0000   1.0000   1.0000   1.0000
     1.0000   1.0000   1.0000   1.0000   0.0000   0.0000   0.0000   0.0000
     0.0000   0.0000   0.0000   0.0000   0.0000   0.0000   0.0000   0.0000
     0.0000   0.0000   0.0000   0.0000   0.0000   0.0000   0.0000   0.0000
     0.0000   0.0000   0.0000   0.0000   0.0000   0.0000   0.0000   0.0000
     0.0000   0.0000   0.0000   0.0000   0.0000   0.0000   0.0000   0.0000
     0.0000   0.0000   0.0000   0.0000   0.0000   0.0000   0.0000   0.0000
     0.0000   0.0000   0.0000   0.0000   0.0000   0.0000   0.0000   0.0000

          k = 0.0333 0.0577 0.0000 ( 59521 PWs)   bands (ev):

   -73.4619 -73.4615 -71.3728 -71.3723 -47.5890 -47.5851 -47.2965 -47.2954
   -46.9701 -46.9658 -45.3668 -45.3623 -45.0708 -45.0693 -44.8947 -44.8895
   -18.4739 -18.4499 -17.8904 -17.8805 -17.6044 -17.6017 -17.5199 -17.5147
   -17.4284 -17.4239 -17.3383 -17.3377 -11.5825 -11.5702 -11.2940 -11.2661
   -10.1867 -10.0204  -9.8755  -9.7307  -9.3114  -9.2355  -9.1849  -9.1633
    -9.0811  -8.8820  -8.7675  -8.7369  -8.4973  -8.4391  -8.1811  -8.1257
    -7.9628  -7.8442  -7.5160  -7.4865  -7.4641  -7.4276  -7.2922  -7.1519
    -6.8442  -6.7061  -6.6033  -6.3480  -6.2501  -6.1741  -6.1186  -6.1126
    -6.0451  -5.6137  -5.5533  -5.5290  -5.1648  -5.1381  -5.0686  -5.0492
    -5.0034  -4.8002  -4.0757  -4.0408  -4.0024  -3.9804  -3.8502  -3.8018
    -2.4344  -2.3905  -2.3729  -2.2605  -1.3412  -1.3370  -1.1573  -0.9449
    -0.4086  -0.2896   0.1002   0.1270   0.2262   0.3289   0.3559   0.3947
     0.5069   0.5470   0.5853   0.6782   0.7942   0.8817   0.9693   1.0577
     1.8290   1.9622   2.1998   2.3269   2.3405   2.4585   2.4764   2.5014
     2.7071   2.7449   2.7582   2.8034   2.8262   2.8685   2.8813   2.9735

     occupation numbers 
     1.0000   1.0000   1.0000   1.0000   1.0000   1.0000   1.0000   1.0000
     1.0000   1.0000   1.0000   1.0000   1.0000   1.0000   1.0000   1.0000
     1.0000   1.0000   1.0000   1.0000   1.0000   1.0000   1.0000   1.0000
     1.0000   1.0000   1.0000   1.0000   1.0000   1.0000   1.0000   1.0000
     1.0000   1.0000   1.0000   1.0000   1.0000   1.0000   1.0000   1.0000
     1.0000   1.0000   1.0000   1.0000   1.0000   1.0000   1.0000   1.0000
     1.0000   1.0000   1.0000   1.0000   1.0000   1.0000   1.0000   1.0000
     1.0000   1.0000   1.0000   1.0000   1.0000   1.0000   1.0000   1.0000
     1.0000   1.0000   1.0000   1.0000   0.0000   0.0000   0.0000   0.0000
     0.0000   0.0000   0.0000   0.0000   0.0000   0.0000   0.0000   0.0000
     0.0000   0.0000   0.0000   0.0000   0.0000   0.0000   0.0000   0.0000
     0.0000   0.0000   0.0000   0.0000   0.0000   0.0000   0.0000   0.0000
     0.0000   0.0000   0.0000   0.0000   0.0000   0.0000   0.0000   0.0000
     0.0000   0.0000   0.0000   0.0000   0.0000   0.0000   0.0000   0.0000
     0.0000   0.0000   0.0000   0.0000   0.0000   0.0000   0.0000   0.0000

          k = 0.0250 0.0433 0.0000 ( 59529 PWs)   bands (ev):

   -73.4619 -73.4615 -71.3728 -71.3723 -47.5890 -47.5851 -47.2965 -47.2954
   -46.9701 -46.9658 -45.3669 -45.3623 -45.0708 -45.0693 -44.8947 -44.8895
   -18.4771 -18.4531 -17.8914 -17.8828 -17.6030 -17.6011 -17.5168 -17.5139
   -17.4239 -17.4210 -17.3383 -17.3376 -11.5801 -11.5680 -11.2954 -11.2672
   -10.1859 -10.0177  -9.8769  -9.7314  -9.3143  -9.2377  -9.1702  -9.1527
    -9.0879  -8.8773  -8.7641  -8.7430  -8.5173  -8.4581  -8.1993  -8.1459
    -7.9715  -7.8524  -7.5088  -7.4751  -7.4627  -7.4294  -7.3035  -7.1537
    -6.8393  -6.6997  -6.5977  -6.3494  -6.2478  -6.1655  -6.1082  -6.1028
    -6.0329  -5.6178  -5.5351  -5.5192  -5.1673  -5.1445  -5.0650  -5.0486
    -5.0004  -4.7880  -4.0771  -4.0360  -4.0048  -3.9879  -3.8494  -3.8011
    -2.4259  -2.3882  -2.3794  -2.2578  -1.3532  -1.3438  -1.1738  -0.9476
    -0.4351  -0.3173   0.0969   0.1232   0.2506   0.3383   0.3582   0.4013
     0.5156   0.5436   0.5919   0.6487   0.8084   0.8601   0.9569   1.0449
     1.8193   1.9444   2.2332   2.3152   2.3606   2.4371   2.4648   2.4877
     2.7432   2.7655   2.7908   2.8463   2.8595   2.9224   2.9268   3.0238

     occupation numbers 
     1.0000   1.0000   1.0000   1.0000   1.0000   1.0000   1.0000   1.0000
     1.0000   1.0000   1.0000   1.0000   1.0000   1.0000   1.0000   1.0000
     1.0000   1.0000   1.0000   1.0000   1.0000   1.0000   1.0000   1.0000
     1.0000   1.0000   1.0000   1.0000   1.0000   1.0000   1.0000   1.0000
     1.0000   1.0000   1.0000   1.0000   1.0000   1.0000   1.0000   1.0000
     1.0000   1.0000   1.0000   1.0000   1.0000   1.0000   1.0000   1.0000
     1.0000   1.0000   1.0000   1.0000   1.0000   1.0000   1.0000   1.0000
     1.0000   1.0000   1.0000   1.0000   1.0000   1.0000   1.0000   1.0000
     1.0000   1.0000   1.0000   1.0000   0.0000   0.0000   0.0000   0.0000
     0.0000   0.0000   0.0000   0.0000   0.0000   0.0000   0.0000   0.0000
     0.0000   0.0000   0.0000   0.0000   0.0000   0.0000   0.0000   0.0000
     0.0000   0.0000   0.0000   0.0000   0.0000   0.0000   0.0000   0.0000
     0.0000   0.0000   0.0000   0.0000   0.0000   0.0000   0.0000   0.0000
     0.0000   0.0000   0.0000   0.0000   0.0000   0.0000   0.0000   0.0000
     0.0000   0.0000   0.0000   0.0000   0.0000   0.0000   0.0000   0.0000

          k = 0.0167 0.0289 0.0000 ( 59517 PWs)   bands (ev):

   -73.4619 -73.4614 -71.3728 -71.3723 -47.5890 -47.5851 -47.2965 -47.2954
   -46.9701 -46.9658 -45.3669 -45.3623 -45.0708 -45.0693 -44.8947 -44.8895
   -18.4793 -18.4553 -17.8922 -17.8845 -17.6021 -17.6006 -17.5147 -17.5133
   -17.4208 -17.4189 -17.3383 -17.3376 -11.5784 -11.5664 -11.2964 -11.2681
   -10.1853 -10.0157  -9.8779  -9.7319  -9.3167  -9.2396  -9.1576  -9.1439
    -9.0949  -8.8727  -8.7608  -8.7485  -8.5323  -8.4717  -8.2131  -8.1606
    -7.9778  -7.8584  -7.5040  -7.4665  -7.4596  -7.4318  -7.3126  -7.1552
    -6.8357  -6.6948  -6.5935  -6.3511  -6.2470  -6.1591  -6.1004  -6.0958
    -6.0231  -5.6214  -5.5218  -5.5111  -5.1691  -5.1497  -5.0625  -5.0480
    -4.9982  -4.7789  -4.0782  -4.0309  -4.0071  -3.9942  -3.8488  -3.8006
    -2.4177  -2.3868  -2.3860  -2.2555  -1.3650  -1.3456  -1.1858  -0.9496
    -0.4544  -0.3376   0.0945   0.1204   0.2693   0.3451   0.3593   0.4078
     0.5222   0.5425   0.5972   0.6245   0.8194   0.8433   0.9479   1.0356
     1.8120   1.9307   2.2579   2.2980   2.3841   2.4219   2.4562   2.4772
     2.7703   2.7787   2.8149   2.8661   2.9007   2.9596   2.9702   3.0206

     occupation numbers 
     1.0000   1.0000   1.0000   1.0000   1.0000   1.0000   1.0000   1.0000
     1.0000   1.0000   1.0000   1.0000   1.0000   1.0000   1.0000   1.0000
     1.0000   1.0000   1.0000   1.0000   1.0000   1.0000   1.0000   1.0000
     1.0000   1.0000   1.0000   1.0000   1.0000   1.0000   1.0000   1.0000
     1.0000   1.0000   1.0000   1.0000   1.0000   1.0000   1.0000   1.0000
     1.0000   1.0000   1.0000   1.0000   1.0000   1.0000   1.0000   1.0000
     1.0000   1.0000   1.0000   1.0000   1.0000   1.0000   1.0000   1.0000
     1.0000   1.0000   1.0000   1.0000   1.0000   1.0000   1.0000   1.0000
     1.0000   1.0000   1.0000   1.0000   0.0000   0.0000   0.0000   0.0000
     0.0000   0.0000   0.0000   0.0000   0.0000   0.0000   0.0000   0.0000
     0.0000   0.0000   0.0000   0.0000   0.0000   0.0000   0.0000   0.0000
     0.0000   0.0000   0.0000   0.0000   0.0000   0.0000   0.0000   0.0000
     0.0000   0.0000   0.0000   0.0000   0.0000   0.0000   0.0000   0.0000
     0.0000   0.0000   0.0000   0.0000   0.0000   0.0000   0.0000   0.0000
     0.0000   0.0000   0.0000   0.0000   0.0000   0.0000   0.0000   0.0000

          k = 0.0083 0.0144 0.0000 ( 59511 PWs)   bands (ev):

   -73.4619 -73.4614 -71.3728 -71.3723 -47.5890 -47.5851 -47.2965 -47.2954
   -46.9701 -46.9658 -45.3669 -45.3622 -45.0708 -45.0693 -44.8947 -44.8894
   -18.4807 -18.4567 -17.8926 -17.8855 -17.6016 -17.6003 -17.5136 -17.5127
   -17.4190 -17.4173 -17.3383 -17.3376 -11.5774 -11.5653 -11.2971 -11.2686
   -10.1850 -10.0144  -9.8785  -9.7322  -9.3183  -9.2408  -9.1488  -9.1372
    -9.1012  -8.8691  -8.7584  -8.7527  -8.5416  -8.4798  -8.2217  -8.1695
    -7.9817  -7.8621  -7.5011  -7.4642  -7.4528  -7.4346  -7.3187  -7.1561
    -6.8335  -6.6916  -6.5910  -6.3523  -6.2467  -6.1552  -6.0954  -6.0917
    -6.0170  -5.6239  -5.5138  -5.5057  -5.1702  -5.1531  -5.0611  -5.0476
    -4.9968  -4.7733  -4.0791  -4.0263  -4.0098  -3.9983  -3.8484  -3.8003
    -2.4098  -2.3933  -2.3855  -2.2540  -1.3722  -1.3467  -1.1931  -0.9508
    -0.4661  -0.3500   0.0931   0.1188   0.2809   0.3492   0.3604   0.4125
     0.5254   0.5435   0.6005   0.6080   0.8263   0.8326   0.9425   1.0300
     1.8075   1.9222   2.2710   2.2898   2.3961   2.4149   2.4512   2.4707
     2.7857   2.7874   2.8297   2.8760   2.9362   2.9859   2.9941   3.0125

     occupation numbers 
     1.0000   1.0000   1.0000   1.0000   1.0000   1.0000   1.0000   1.0000
     1.0000   1.0000   1.0000   1.0000   1.0000   1.0000   1.0000   1.0000
     1.0000   1.0000   1.0000   1.0000   1.0000   1.0000   1.0000   1.0000
     1.0000   1.0000   1.0000   1.0000   1.0000   1.0000   1.0000   1.0000
     1.0000   1.0000   1.0000   1.0000   1.0000   1.0000   1.0000   1.0000
     1.0000   1.0000   1.0000   1.0000   1.0000   1.0000   1.0000   1.0000
     1.0000   1.0000   1.0000   1.0000   1.0000   1.0000   1.0000   1.0000
     1.0000   1.0000   1.0000   1.0000   1.0000   1.0000   1.0000   1.0000
     1.0000   1.0000   1.0000   1.0000   0.0000   0.0000   0.0000   0.0000
     0.0000   0.0000   0.0000   0.0000   0.0000   0.0000   0.0000   0.0000
     0.0000   0.0000   0.0000   0.0000   0.0000   0.0000   0.0000   0.0000
     0.0000   0.0000   0.0000   0.0000   0.0000   0.0000   0.0000   0.0000
     0.0000   0.0000   0.0000   0.0000   0.0000   0.0000   0.0000   0.0000
     0.0000   0.0000   0.0000   0.0000   0.0000   0.0000   0.0000   0.0000
     0.0000   0.0000   0.0000   0.0000   0.0000   0.0000   0.0000   0.0000

          k = 0.0000 0.0000 0.0000 ( 59461 PWs)   bands (ev):

   -73.4619 -73.4614 -71.3728 -71.3723 -47.5890 -47.5851 -47.2965 -47.2954
   -46.9701 -46.9658 -45.3669 -45.3622 -45.0708 -45.0693 -44.8947 -44.8894
   -18.4811 -18.4571 -17.8928 -17.8858 -17.6015 -17.6002 -17.5133 -17.5124
   -17.4185 -17.4168 -17.3383 -17.3376 -11.5770 -11.5650 -11.2973 -11.2688
   -10.1849 -10.0139  -9.8787  -9.7323  -9.3188  -9.2412  -9.1458  -9.1341
    -9.1042  -8.8678  -8.7576  -8.7543  -8.5448  -8.4824  -8.2247  -8.1726
    -7.9830  -7.8633  -7.5002  -7.4638  -7.4491  -7.4365  -7.3208  -7.1564
    -6.8328  -6.6906  -6.5901  -6.3528  -6.2467  -6.1539  -6.0937  -6.0904
    -6.0148  -5.6248  -5.5112  -5.5038  -5.1705  -5.1542  -5.0606  -5.0475
    -4.9963  -4.7714  -4.0794  -4.0240  -4.0114  -3.9996  -3.8483  -3.8002
    -2.4044  -2.3985  -2.3852  -2.2535  -1.3746  -1.3471  -1.1955  -0.9512
    -0.4701  -0.3541   0.0926   0.1182   0.2848   0.3505   0.3611   0.4142
     0.5262   0.5444   0.6007   0.6031   0.8281   0.8295   0.9406   1.0281
     1.8060   1.9192   2.2732   2.2894   2.3982   2.4145   2.4496   2.4685
     2.7882   2.7930   2.8347   2.8791   2.9540   2.9928   2.9963   3.0130

     occupation numbers 
     1.0000   1.0000   1.0000   1.0000   1.0000   1.0000   1.0000   1.0000
     1.0000   1.0000   1.0000   1.0000   1.0000   1.0000   1.0000   1.0000
     1.0000   1.0000   1.0000   1.0000   1.0000   1.0000   1.0000   1.0000
     1.0000   1.0000   1.0000   1.0000   1.0000   1.0000   1.0000   1.0000
     1.0000   1.0000   1.0000   1.0000   1.0000   1.0000   1.0000   1.0000
     1.0000   1.0000   1.0000   1.0000   1.0000   1.0000   1.0000   1.0000
     1.0000   1.0000   1.0000   1.0000   1.0000   1.0000   1.0000   1.0000
     1.0000   1.0000   1.0000   1.0000   1.0000   1.0000   1.0000   1.0000
     1.0000   1.0000   1.0000   1.0000   0.0000   0.0000   0.0000   0.0000
     0.0000   0.0000   0.0000   0.0000   0.0000   0.0000   0.0000   0.0000
     0.0000   0.0000   0.0000   0.0000   0.0000   0.0000   0.0000   0.0000
     0.0000   0.0000   0.0000   0.0000   0.0000   0.0000   0.0000   0.0000
     0.0000   0.0000   0.0000   0.0000   0.0000   0.0000   0.0000   0.0000
     0.0000   0.0000   0.0000   0.0000   0.0000   0.0000   0.0000   0.0000
     0.0000   0.0000   0.0000   0.0000   0.0000   0.0000   0.0000   0.0000

     highest occupied, lowest unoccupied level (ev):    -5.4650   -5.3622

     Writing all to output data dir ./VI3.save/ :
     XML data file, pseudopotentials, collected wavefunctions
 
     init_run     :      1.82s CPU      2.77s WALL (       1 calls)
     electrons    :    204.20s CPU    216.94s WALL (       1 calls)

     Called by init_run:
     wfcinit      :      1.06s CPU      1.65s WALL (       1 calls)
     wfcinit:atom :      0.03s CPU      0.03s WALL (      31 calls)
     wfcinit:wfcr :     10.10s CPU     11.02s WALL (      31 calls)
     potinit      :      0.07s CPU      0.27s WALL (       1 calls)
     hinit0       :      0.40s CPU      0.35s WALL (       1 calls)

     Called by electrons:
     c_bands      :    204.20s CPU    216.94s WALL (       1 calls)
     v_of_rho     :      0.04s CPU      0.05s WALL (       1 calls)
     v_h          :      0.01s CPU      0.01s WALL (       1 calls)
     v_xc         :      0.03s CPU      0.04s WALL (       1 calls)

     Called by c_bands:
     init_us_2    :      0.04s CPU      0.06s WALL (      62 calls)
     cegterg      :    189.87s CPU    198.78s WALL (      90 calls)

     Called by sum_band:

     Called by *egterg:
     cdiaghg      :      8.56s CPU      8.96s WALL (    1513 calls)
                                        8.95s GPU  (    1513 calls)
     cegterg:over :      4.50s CPU      4.53s WALL (    1451 calls)
     cegterg:upda :      3.16s CPU      3.15s WALL (    1451 calls)
     cegterg:last :      0.85s CPU      0.85s WALL (     183 calls)
     h_psi        :    181.10s CPU    190.56s WALL (    1572 calls)
     g_psi        :      0.18s CPU      0.18s WALL (    1451 calls)

     Called by h_psi:
     h_psi:calbec :      0.06s CPU      0.06s WALL (    1572 calls)
     vloc_psi     :     45.71s CPU     46.36s WALL (    1572 calls)
                                       46.35s GPU  (    1572 calls)
     add_vuspsi   :      2.77s CPU      2.81s WALL (    1572 calls)
     vhpsi        :     93.41s CPU     93.63s WALL (    1572 calls)

     General routines
     calbec       :      0.09s CPU      0.17s WALL (    1603 calls)
     fft          :      0.00s CPU      0.08s WALL (      23 calls)
                                        0.08s GPU  (      23 calls)
     fftw         :      2.92s CPU     30.14s WALL (  264636 calls)
                                       28.48s GPU  (  264636 calls)
 
     Parallel routines

     Hubbard U routines
     vhpsi        :     93.41s CPU     93.63s WALL (    1572 calls)
 
     PWSCF        :   3m29.87s CPU   3m49.81s WALL

 
   This run was terminated on:   5:37: 8  17Jun2026            

=------------------------------------------------------------------------------=
   JOB DONE.
=------------------------------------------------------------------------------=
