&control
   prefix = 'VI3'
   pseudo_dir = './'
   calculation = 'nscf'
   verbosity = 'high'
   wf_collect = .true.
   disk_io = 'low'
/
&system
   ecutwfc = 80.0
   ibrav = 0
   nat = 8
   ntyp = 2
   noncolin = .true.
   lspinorb = .true.
   no_t_rev = .true.
   nosym = .true.
   nbnd = 120
   assume_isolated = '2D'
   starting_magnetization(1) = 2.0
   starting_magnetization(2) = 0.0
   angle1(1) = 0.0
   angle2(1) = 0.0
   Hubbard_occ(1,1) = 2.0
/
&electrons
   electron_maxstep = 200
   conv_thr = 1e-6
   diagonalization = 'david'
   diago_david_ndim = 4
   diago_full_acc = .true.
/

ATOMIC_SPECIES
   V   50.942 'V.upf'
   I  126.904 'I.upf'

CELL_PARAMETERS angstrom
   6.840000   0.000000   0.000000
  -3.420000   5.923607   0.000000
   0.000000   0.000000  18.000000

ATOMIC_POSITIONS crystal
   V   0.3333373259  0.6666630733  0.0004399437
   V   0.6666626741  0.3333369267  0.9995600603
   I   0.3418148668  0.9994230169  0.9062750255
   I   0.0005900624  0.3423972300  0.9062736328
   I   0.6575994572  0.6581845973  0.9062776988
   I   0.6581851332  0.0005769641  0.0937249445
   I   0.9994099166  0.6576027700  0.0937263372
   I   0.3424005428  0.3418154327  0.0937222712

K_POINTS crystal
121
  0.0000000000  0.0000000000  0.0000000000  1.0
  0.0125000000  0.0000000000  0.0000000000  1.0
  0.0250000000  0.0000000000  0.0000000000  1.0
  0.0375000000  0.0000000000  0.0000000000  1.0
  0.0500000000  0.0000000000  0.0000000000  1.0
  0.0625000000  0.0000000000  0.0000000000  1.0
  0.0750000000  0.0000000000  0.0000000000  1.0
  0.0875000000  0.0000000000  0.0000000000  1.0
  0.1000000000  0.0000000000  0.0000000000  1.0
  0.1125000000  0.0000000000  0.0000000000  1.0
  0.1250000000  0.0000000000  0.0000000000  1.0
  0.1375000000  0.0000000000  0.0000000000  1.0
  0.1500000000  0.0000000000  0.0000000000  1.0
  0.1625000000  0.0000000000  0.0000000000  1.0
  0.1750000000  0.0000000000  0.0000000000  1.0
  0.1875000000  0.0000000000  0.0000000000  1.0
  0.2000000000  0.0000000000  0.0000000000  1.0
  0.2125000000  0.0000000000  0.0000000000  1.0
  0.2250000000  0.0000000000  0.0000000000  1.0
  0.2375000000  0.0000000000  0.0000000000  1.0
  0.2500000000  0.0000000000  0.0000000000  1.0
  0.2625000000  0.0000000000  0.0000000000  1.0
  0.2750000000  0.0000000000  0.0000000000  1.0
  0.2875000000  0.0000000000  0.0000000000  1.0
  0.3000000000  0.0000000000  0.0000000000  1.0
  0.3125000000  0.0000000000  0.0000000000  1.0
  0.3250000000  0.0000000000  0.0000000000  1.0
  0.3375000000  0.0000000000  0.0000000000  1.0
  0.3500000000  0.0000000000  0.0000000000  1.0
  0.3625000000  0.0000000000  0.0000000000  1.0
  0.3750000000  0.0000000000  0.0000000000  1.0
  0.3875000000  0.0000000000  0.0000000000  1.0
  0.4000000000  0.0000000000  0.0000000000  1.0
  0.4125000000  0.0000000000  0.0000000000  1.0
  0.4250000000  0.0000000000  0.0000000000  1.0
  0.4375000000  0.0000000000  0.0000000000  1.0
  0.4500000000  0.0000000000  0.0000000000  1.0
  0.4625000000  0.0000000000  0.0000000000  1.0
  0.4750000000  0.0000000000  0.0000000000  1.0
  0.4875000000  0.0000000000  0.0000000000  1.0
  0.5000000000  0.0000000000  0.0000000000  1.0
  0.4958333333  0.0083333333  0.0000000000  1.0
  0.4916666667  0.0166666667  0.0000000000  1.0
  0.4875000000  0.0250000000  0.0000000000  1.0
  0.4833333333  0.0333333333  0.0000000000  1.0
  0.4791666667  0.0416666667  0.0000000000  1.0
  0.4750000000  0.0500000000  0.0000000000  1.0
  0.4708333333  0.0583333333  0.0000000000  1.0
  0.4666666667  0.0666666667  0.0000000000  1.0
  0.4625000000  0.0750000000  0.0000000000  1.0
  0.4583333333  0.0833333333  0.0000000000  1.0
  0.4541666667  0.0916666667  0.0000000000  1.0
  0.4500000000  0.1000000000  0.0000000000  1.0
  0.4458333333  0.1083333333  0.0000000000  1.0
  0.4416666667  0.1166666667  0.0000000000  1.0
  0.4375000000  0.1250000000  0.0000000000  1.0
  0.4333333333  0.1333333333  0.0000000000  1.0
  0.4291666667  0.1416666667  0.0000000000  1.0
  0.4250000000  0.1500000000  0.0000000000  1.0
  0.4208333333  0.1583333333  0.0000000000  1.0
  0.4166666667  0.1666666667  0.0000000000  1.0
  0.4125000000  0.1750000000  0.0000000000  1.0
  0.4083333333  0.1833333333  0.0000000000  1.0
  0.4041666667  0.1916666667  0.0000000000  1.0
  0.4000000000  0.2000000000  0.0000000000  1.0
  0.3958333333  0.2083333333  0.0000000000  1.0
  0.3916666667  0.2166666667  0.0000000000  1.0
  0.3875000000  0.2250000000  0.0000000000  1.0
  0.3833333333  0.2333333333  0.0000000000  1.0
  0.3791666667  0.2416666667  0.0000000000  1.0
  0.3750000000  0.2500000000  0.0000000000  1.0
  0.3708333333  0.2583333333  0.0000000000  1.0
  0.3666666667  0.2666666667  0.0000000000  1.0
  0.3625000000  0.2750000000  0.0000000000  1.0
  0.3583333333  0.2833333333  0.0000000000  1.0
  0.3541666667  0.2916666667  0.0000000000  1.0
  0.3500000000  0.3000000000  0.0000000000  1.0
  0.3458333333  0.3083333333  0.0000000000  1.0
  0.3416666667  0.3166666667  0.0000000000  1.0
  0.3375000000  0.3250000000  0.0000000000  1.0
  0.3333333333  0.3333333333  0.0000000000  1.0
  0.3250000000  0.3250000000  0.0000000000  1.0
  0.3166666667  0.3166666667  0.0000000000  1.0
  0.3083333333  0.3083333333  0.0000000000  1.0
  0.3000000000  0.3000000000  0.0000000000  1.0
  0.2916666667  0.2916666667  0.0000000000  1.0
  0.2833333333  0.2833333333  0.0000000000  1.0
  0.2750000000  0.2750000000  0.0000000000  1.0
  0.2666666667  0.2666666667  0.0000000000  1.0
  0.2583333333  0.2583333333  0.0000000000  1.0
  0.2500000000  0.2500000000  0.0000000000  1.0
  0.2416666667  0.2416666667  0.0000000000  1.0
  0.2333333333  0.2333333333  0.0000000000  1.0
  0.2250000000  0.2250000000  0.0000000000  1.0
  0.2166666667  0.2166666667  0.0000000000  1.0
  0.2083333333  0.2083333333  0.0000000000  1.0
  0.2000000000  0.2000000000  0.0000000000  1.0
  0.1916666667  0.1916666667  0.0000000000  1.0
  0.1833333333  0.1833333333  0.0000000000  1.0
  0.1750000000  0.1750000000  0.0000000000  1.0
  0.1666666667  0.1666666667  0.0000000000  1.0
  0.1583333333  0.1583333333  0.0000000000  1.0
  0.1500000000  0.1500000000  0.0000000000  1.0
  0.1416666667  0.1416666667  0.0000000000  1.0
  0.1333333333  0.1333333333  0.0000000000  1.0
  0.1250000000  0.1250000000  0.0000000000  1.0
  0.1166666667  0.1166666667  0.0000000000  1.0
  0.1083333333  0.1083333333  0.0000000000  1.0
  0.1000000000  0.1000000000  0.0000000000  1.0
  0.0916666667  0.0916666667  0.0000000000  1.0
  0.0833333333  0.0833333333  0.0000000000  1.0
  0.0750000000  0.0750000000  0.0000000000  1.0
  0.0666666667  0.0666666667  0.0000000000  1.0
  0.0583333333  0.0583333333  0.0000000000  1.0
  0.0500000000  0.0500000000  0.0000000000  1.0
  0.0416666667  0.0416666667  0.0000000000  1.0
  0.0333333333  0.0333333333  0.0000000000  1.0
  0.0250000000  0.0250000000  0.0000000000  1.0
  0.0166666667  0.0166666667  0.0000000000  1.0
  0.0083333333  0.0083333333  0.0000000000  1.0
  0.0000000000  0.0000000000  0.0000000000  1.0

HUBBARD ortho-atomic
U V-3d 5.0
