
     Program PWSCF v.7.3.1 starts on 25Apr2026 at 15:49: 9 
        Git branch: HEAD
        Last git commit: 7fd60c9bc9fe7a7d1fe6f1049f4afba0eab9aeef-dirty
        Last git commit date: Thu Feb 29 10:18:05 2024 +0000
        Last git commit subject: Merge branch 'master_qe_7.3.1' into 'master'

     This program is part of the open-source Quantum ESPRESSO suite
     for quantum simulation of materials; please cite
         "P. Giannozzi et al., J. Phys.:Condens. Matter 21 395502 (2009);
         "P. Giannozzi et al., J. Phys.:Condens. Matter 29 465901 (2017);
         "P. Giannozzi et al., J. Chem. Phys. 152 154105 (2020);
          URL http://www.quantum-espresso.org", 
     in publications or presentations arising from this work. More details at
     http://www.quantum-espresso.org/quote

     Parallel version (MPI & OpenMP), running on      64 processor cores
     Number of MPI processes:                 4
     Threads/MPI process:                    16

     MPI processes distributed on     1 nodes
     229915 MiB available memory on the printing compute node when the environment starts
 
     Reading input from nscf.in

     Current dimensions of program PWSCF are:
     Max number of different atomic species (ntypx) = 10
     Max number of k-points (npk) =  40000
     Max angular momentum in pseudopotentials (lmaxx) =  4

     Atomic positions and unit cell read from directory:
     ./MoS2.save/
 
 
     K-points division:     npool     =       4
     Subspace diagonalization in iterative solution of the eigenvalue problem:
     a serial algorithm will be used

 
     G-vector sticks info
     --------------------
     sticks:   dense  smooth     PW     G-vecs:    dense   smooth      PW
     Sum         595     595    199                44037    44037    9025
 
     Using Slab Decomposition
 


     bravais-lattice index     =            0
     lattice parameter (alat)  =       5.9796  a.u.
     unit-cell volume          =     702.2012 (a.u.)^3
     number of atoms/cell      =            3
     number of atomic types    =            2
     number of electrons       =        26.00
     number of Kohn-Sham states=          200
     kinetic-energy cutoff     =      60.0000  Ry
     charge density cutoff     =     240.0000  Ry
     Exchange-correlation= PBE
                           (   1   4   3   4   0   0   0)
     Non magnetic calculation with spin-orbit


     GPU acceleration is ACTIVE.  4 visible GPUs per MPI rank


     celldm(1)=   5.979645  celldm(2)=   0.000000  celldm(3)=   0.000000
     celldm(4)=   0.000000  celldm(5)=   0.000000  celldm(6)=   0.000000

     crystal axes: (cart. coord. in units of alat)
               a(1) = (   1.000000   0.000000   0.000000 )  
               a(2) = (  -0.499999   0.866025   0.000000 )  
               a(3) = (   0.000000   0.000000   3.792318 )  

     reciprocal axes: (cart. coord. in units 2 pi/alat)
               b(1) = (  1.000000  0.577349 -0.000000 )  
               b(2) = (  0.000000  1.154701  0.000000 )  
               b(3) = (  0.000000 -0.000000  0.263691 )  


     PseudoPot. # 1 for Mo read from file:
     ./Mo.upf
     MD5 check sum: 4e1c3579de4f68baf863f15f5be96aa1
     Pseudo is Norm-conserving + core correction, Zval = 14.0
     Generated using ONCVPSP code by D. R. Hamann
     Using radial grid of 1640 points, 10 beta functions with: 
                l(1) =   0
                l(2) =   0
                l(3) =   1
                l(4) =   1
                l(5) =   1
                l(6) =   1
                l(7) =   2
                l(8) =   2
                l(9) =   2
               l(10) =   2

     PseudoPot. # 2 for S  read from file:
     ./S.upf
     MD5 check sum: a7319d53700e7dada26ada44d0048388
     Pseudo is Norm-conserving + core correction, Zval =  6.0
     Generated using ONCVPSP code by D. R. Hamann
     Using radial grid of 1146 points, 10 beta functions with: 
                l(1) =   0
                l(2) =   0
                l(3) =   1
                l(4) =   1
                l(5) =   1
                l(6) =   1
                l(7) =   2
                l(8) =   2
                l(9) =   2
               l(10) =   2

     atomic species   valence    mass     pseudopotential
     Mo               14.00    95.94000     Mo( 1.00)
     S                 6.00    32.07000     S ( 1.00)

     No symmetry found



   Cartesian axes

     site n.     atom                  positions (alat units)
         1        Mo     tau(   1) = (   0.5000009   0.2886748   0.0000000  )
         2        S      tau(   2) = (   0.0000003   0.5773505   0.5003129  )
         3        S      tau(   3) = (   0.0000003   0.5773505  -0.5003129  )

     number of k points=     9
                       cart. coord. in units 2pi/alat
        k(    1) = (   0.0000000   0.0000000   0.0000000), wk =   0.1111111
        k(    2) = (   0.0000000   0.3849002   0.0000000), wk =   0.1111111
        k(    3) = (   0.0000000   0.7698004   0.0000000), wk =   0.1111111
        k(    4) = (   0.3333333   0.1924496   0.0000000), wk =   0.1111111
        k(    5) = (   0.3333333   0.5773498   0.0000000), wk =   0.1111111
        k(    6) = (   0.3333333   0.9622501   0.0000000), wk =   0.1111111
        k(    7) = (   0.6666667   0.3848992   0.0000000), wk =   0.1111111
        k(    8) = (   0.6666667   0.7697995   0.0000000), wk =   0.1111111
        k(    9) = (   0.6666667   1.1546997   0.0000000), wk =   0.1111111

     Dense  grid:    44037 G-vectors     FFT dimensions: (  30,  30, 120)

     Estimated max dynamical RAM per process >     378.50 MB

     Estimated total dynamical RAM >       1.48 GB
 ----2D----2D----2D----2D----2D----2D----2D----2D----2D----2D----2D----2D
  The code is running with the 2D cutoff
  Please refer to:
  Sohier, T., Calandra, M., & Mauri, F. (2017), 
  Density functional perturbation theory for gated two-dimensional heterostructures:
  Theoretical developments and application to flexural phonons in graphene.
  Physical Review B, 96(7), 75448. https://doi.org/10.1103/PhysRevB.96.075448
 ----2D----2D----2D----2D----2D----2D----2D----2D----2D----2D----2D----2D

     The potential is recalculated from file :
     ./MoS2.save/charge-density

     Starting wfcs are   36 randomized atomic wfcs +  164 random wfcs

     Band Structure Calculation
     Davidson diagonalization with overlap

     ethr =  3.85E-13,  avg # of iterations = 35.7

     total cpu time spent up to now is        7.6 secs

     End of band structure calculation

          k = 0.0000 0.0000 0.0000 (  5545 PWs)   bands (ev):

   -66.0604 -66.0604 -41.7822 -41.7822 -39.3780 -39.3780 -39.1585 -39.1585
   -19.4347 -19.4347 -18.2073 -18.2073 -10.9152 -10.9152  -7.7885  -7.7885
    -7.7251  -7.7251  -7.1378  -7.1378  -6.7533  -6.7533  -6.6681  -6.6681
    -5.3629  -5.3629  -2.5727  -2.5727  -2.4952  -2.4952  -2.3238  -2.3238
    -2.3228  -2.3228   1.0204   1.0204   3.6913   3.6913   3.9190   3.9190
     4.7708   4.7708   5.4228   5.4228   5.4942   5.4942   7.3799   7.3799
     7.3996   7.3996   7.5373   7.5373  10.6518  10.6518  10.6678  10.6678
    10.8611  10.8611  10.9684  10.9684  10.9688  10.9688  11.2256  11.2256
    13.9907  13.9907  14.2613  14.2613  14.5907  14.5907  16.0875  16.0875
    18.0250  18.0250  18.1923  18.1923  20.5029  20.5029  20.7877  20.7877
    20.8041  20.8041  21.1405  21.1405  21.7243  21.7243  22.2424  22.2424
    22.2818  22.2818  22.9165  22.9165  23.3954  23.3954  23.4071  23.4071
    23.9988  23.9988  24.0152  24.0152  24.1551  24.1551  25.8221  25.8221
    27.3434  27.3434  27.3949  27.3949  28.1751  28.1751  28.2638  28.2638
    28.2810  28.2810  29.5065  29.5065  30.0083  30.0083  30.0146  30.0146
    30.0838  30.0838  31.8029  31.8029  31.9677  31.9677  31.9687  31.9687
    32.0618  32.0618  32.2384  32.2384  32.3780  32.3780  32.3837  32.3837
    33.8197  33.8197  34.2839  34.2839  34.2880  34.2880  34.7745  34.7745
    34.7885  34.7885  34.7942  34.7942  35.9511  35.9511  36.1867  36.1867
    36.1879  36.1879  37.4797  37.4797  37.4819  37.4819  37.9190  37.9190
    38.1053  38.1053  38.6061  38.6061  39.0797  39.0797  39.0984  39.0984
    39.7065  39.7065  39.7969  39.7969  41.3956  41.3956  41.4386  41.4386
    41.7572  41.7572  41.8125  41.8125  42.3793  42.3793  42.9227  42.9227
    43.9245  43.9245  44.2378  44.2378  44.2554  44.2554  44.4777  44.4777
    44.4895  44.4895  44.8996  44.8996  45.5400  45.5400  46.4298  46.4298

          k = 0.0000 0.3849 0.0000 (  5509 PWs)   bands (ev):

   -66.0302 -66.0302 -41.8634 -41.8634 -39.4571 -39.4571 -39.3020 -39.3020
   -18.0957 -18.0957 -17.6254 -17.6254 -10.5146 -10.5146  -9.5423  -9.5423
    -9.2054  -9.2054  -8.0830  -8.0830  -7.0326  -7.0326  -6.5705  -6.5705
    -6.2649  -6.2649  -3.0345  -3.0345  -2.9309  -2.9309  -1.8582  -1.8582
    -1.2535  -1.2535   2.4860   2.4860   2.8600   2.8600   3.2791   3.2791
     5.1309   5.1309   5.5554   5.5554   7.0974   7.0974   7.5712   7.5712
     7.6818   7.6818   9.0642   9.0642   9.6160   9.6160   9.9747   9.9747
    10.1010  10.1010  12.2346  12.2346  13.5178  13.5178  13.8148  13.8148
    14.7973  14.7973  15.5304  15.5304  16.2561  16.2561  16.9603  16.9603
    17.1701  17.1701  17.6858  17.6858  19.3101  19.3101  19.4567  19.4567
    19.7144  19.7144  20.7052  20.7052  20.9926  20.9926  21.1234  21.1234
    22.6682  22.6682  22.7205  22.7205  22.7956  22.7956  22.9211  22.9211
    23.9065  23.9066  24.0069  24.0069  24.2678  24.2678  24.9678  24.9678
    26.0183  26.0184  26.0684  26.0685  26.7618  26.7618  26.8525  26.8525
    27.0026  27.0026  29.4646  29.4646  29.6418  29.6418  29.8681  29.8681
    30.3759  30.3759  30.5376  30.5376  30.7203  30.7203  30.8323  30.8323
    32.1808  32.1808  32.5948  32.5948  33.0769  33.0769  33.2145  33.2145
    34.3916  34.3916  34.4354  34.4354  34.8261  34.8261  34.9159  34.9159
    35.8073  35.8073  35.9511  35.9511  36.2705  36.2705  36.3206  36.3206
    37.2495  37.2495  37.3611  37.3611  38.4942  38.4942  38.6897  38.6897
    39.2617  39.2617  39.2769  39.2769  39.4856  39.4856  39.8486  39.8486
    41.3364  41.3364  41.3830  41.3830  41.6357  41.6358  42.5697  42.5697
    42.7116  42.7116  42.9585  42.9585  43.3754  43.3754  43.4708  43.4708
    43.6331  43.6331  44.1176  44.1176  44.3453  44.3453  44.7967  44.7967
    45.4358  45.4358  45.8314  45.8314  46.5515  46.5515  46.5864  46.5864

          k = 0.0000 0.7698 0.0000 (  5509 PWs)   bands (ev):

   -66.0302 -66.0302 -41.8634 -41.8634 -39.4571 -39.4571 -39.3020 -39.3020
   -18.0957 -18.0957 -17.6254 -17.6254 -10.5146 -10.5146  -9.5423  -9.5423
    -9.2054  -9.2054  -8.0830  -8.0830  -7.0326  -7.0326  -6.5705  -6.5705
    -6.2649  -6.2649  -3.0345  -3.0345  -2.9309  -2.9309  -1.8582  -1.8582
    -1.2535  -1.2535   2.4860   2.4860   2.8600   2.8600   3.2791   3.2791
     5.1309   5.1309   5.5554   5.5554   7.0974   7.0974   7.5712   7.5712
     7.6818   7.6818   9.0642   9.0642   9.6160   9.6160   9.9747   9.9747
    10.1010  10.1010  12.2346  12.2346  13.5178  13.5178  13.8148  13.8148
    14.7973  14.7973  15.5304  15.5304  16.2561  16.2561  16.9603  16.9603
    17.1701  17.1701  17.6858  17.6858  19.3101  19.3101  19.4567  19.4567
    19.7144  19.7144  20.7052  20.7052  20.9926  20.9926  21.1234  21.1234
    22.6682  22.6682  22.7205  22.7205  22.7956  22.7956  22.9211  22.9211
    23.9065  23.9066  24.0069  24.0069  24.2678  24.2678  24.9678  24.9678
    26.0183  26.0184  26.0684  26.0685  26.7618  26.7618  26.8525  26.8525
    27.0026  27.0026  29.4646  29.4646  29.6418  29.6418  29.8681  29.8681
    30.3759  30.3759  30.5376  30.5376  30.7203  30.7203  30.8323  30.8323
    32.1808  32.1808  32.5948  32.5948  33.0769  33.0769  33.2145  33.2145
    34.3916  34.3916  34.4354  34.4354  34.8261  34.8261  34.9159  34.9159
    35.8073  35.8073  35.9511  35.9511  36.2705  36.2705  36.3206  36.3206
    37.2495  37.2495  37.3611  37.3611  38.4942  38.4942  38.6897  38.6897
    39.2617  39.2617  39.2769  39.2769  39.4856  39.4856  39.8486  39.8486
    41.3364  41.3364  41.3830  41.3830  41.6357  41.6358  42.5697  42.5697
    42.7116  42.7116  42.9585  42.9585  43.3754  43.3754  43.4708  43.4708
    43.6331  43.6331  44.1176  44.1176  44.3453  44.3453  44.7967  44.7967
    45.4358  45.4358  45.8314  45.8314  46.5515  46.5515  46.5864  46.5864

          k = 0.3333 0.1924 0.0000 (  5509 PWs)   bands (ev):

   -66.0302 -66.0302 -41.8634 -41.8634 -39.4571 -39.4571 -39.3020 -39.3020
   -18.0957 -18.0957 -17.6254 -17.6254 -10.5146 -10.5146  -9.5423  -9.5423
    -9.2054  -9.2054  -8.0830  -8.0830  -7.0326  -7.0326  -6.5705  -6.5705
    -6.2649  -6.2649  -3.0345  -3.0345  -2.9309  -2.9309  -1.8582  -1.8582
    -1.2535  -1.2535   2.4860   2.4860   2.8600   2.8600   3.2791   3.2791
     5.1309   5.1309   5.5554   5.5554   7.0974   7.0974   7.5712   7.5712
     7.6818   7.6818   9.0642   9.0642   9.6160   9.6160   9.9747   9.9747
    10.1010  10.1010  12.2346  12.2346  13.5178  13.5178  13.8148  13.8148
    14.7973  14.7973  15.5304  15.5304  16.2561  16.2561  16.9603  16.9603
    17.1701  17.1701  17.6858  17.6858  19.3101  19.3101  19.4567  19.4567
    19.7144  19.7144  20.7052  20.7052  20.9926  20.9926  21.1234  21.1234
    22.6682  22.6682  22.7205  22.7205  22.7956  22.7956  22.9211  22.9211
    23.9066  23.9066  24.0069  24.0069  24.2678  24.2678  24.9678  24.9678
    26.0184  26.0184  26.0684  26.0684  26.7618  26.7618  26.8525  26.8525
    27.0026  27.0026  29.4646  29.4646  29.6419  29.6419  29.8681  29.8681
    30.3760  30.3760  30.5377  30.5377  30.7203  30.7203  30.8323  30.8323
    32.1808  32.1808  32.5948  32.5948  33.0769  33.0769  33.2145  33.2145
    34.3915  34.3915  34.4354  34.4354  34.8261  34.8261  34.9159  34.9159
    35.8073  35.8073  35.9510  35.9511  36.2705  36.2705  36.3206  36.3206
    37.2495  37.2495  37.3610  37.3610  38.4942  38.4942  38.6897  38.6897
    39.2617  39.2617  39.2769  39.2769  39.4856  39.4856  39.8486  39.8486
    41.3364  41.3364  41.3829  41.3829  41.6358  41.6358  42.5697  42.5697
    42.7116  42.7116  42.9586  42.9586  43.3754  43.3754  43.4708  43.4708
    43.6331  43.6331  44.1176  44.1176  44.3453  44.3453  44.7966  44.7966
    45.4358  45.4358  45.8314  45.8314  46.5515  46.5515  46.5864  46.5864

          k = 0.3333 0.5773 0.0000 (  5502 PWs)   bands (ev):

   -66.0152 -66.0152 -41.9147 -41.8921 -39.4760 -39.4281 -39.4271 -39.4113
   -17.2621 -17.2177 -17.2140 -17.2021 -10.7264 -10.7186  -9.9768  -9.9413
    -9.4268  -9.3723  -8.8481  -8.8272  -8.3086  -8.2590  -7.5663  -7.5431
    -5.3076  -5.1633  -3.5012  -3.4990  -2.3603  -2.3271  -1.7586  -1.6131
    -0.3986  -0.3147   2.0068   2.1311   2.3578   2.3618   4.7438   4.7534
     5.7435   5.7898   6.3172   6.3353   7.1164   7.1364   7.2292   7.2949
     7.5304   7.5603   7.6419   7.6608   8.9347   8.9347  10.5243  10.5838
    11.6814  11.6859  12.9374  12.9376  13.2328  13.2863  13.3182  13.4560
    14.0375  14.0439  14.7947  14.8115  15.3521  15.3735  17.6655  17.6809
    19.1506  19.1507  19.7364  19.7383  19.9920  20.0193  20.1447  20.1539
    20.3216  20.3471  20.4675  20.4815  20.5138  20.5185  21.2129  21.2263
    21.6386  21.6391  21.7242  21.7268  22.5754  22.5796  22.7983  22.8535
    23.7942  23.7944  23.8422  23.8442  24.2774  24.3072  24.3081  24.3272
    24.3846  24.4097  26.5091  26.5127  26.5964  26.5987  27.8531  27.8628
    27.9661  28.0090  29.4396  29.4450  29.6100  29.6136  30.1469  30.1628
    30.3367  30.3477  30.7854  30.7898  30.8284  30.8300  31.7089  31.7347
    31.7365  31.7504  31.7635  31.7688  31.8719  31.9967  32.8892  32.8893
    32.9447  33.0040  33.2593  33.2603  34.4706  34.4748  34.9134  34.9194
    35.7233  35.7235  36.1076  36.1086  36.4542  36.4668  36.9225  36.9368
    37.2803  37.2950  37.9103  37.9131  37.9429  37.9553  38.1451  38.1512
    38.6843  38.6985  39.4071  39.4074  39.9233  39.9267  40.7418  40.7426
    40.7474  40.7541  41.0368  41.0410  41.1305  41.1569  41.6560  41.6619
    41.7241  41.7457  41.7678  41.7691  42.6854  42.6856  43.1005  43.1015
    43.4781  43.4802  45.1499  45.1528  45.3105  45.3514  45.8367  45.8426
    45.8526  46.0055  46.5252  46.5367  46.6949  46.7018  46.7733  46.8037

          k = 0.3333 0.9623 0.0000 (  5509 PWs)   bands (ev):

   -66.0302 -66.0302 -41.8634 -41.8634 -39.4571 -39.4571 -39.3020 -39.3020
   -18.0957 -18.0957 -17.6254 -17.6254 -10.5146 -10.5146  -9.5423  -9.5423
    -9.2054  -9.2054  -8.0830  -8.0830  -7.0326  -7.0326  -6.5705  -6.5705
    -6.2649  -6.2649  -3.0345  -3.0345  -2.9309  -2.9309  -1.8582  -1.8582
    -1.2535  -1.2535   2.4860   2.4860   2.8600   2.8600   3.2791   3.2791
     5.1309   5.1309   5.5554   5.5554   7.0974   7.0974   7.5712   7.5712
     7.6818   7.6818   9.0642   9.0642   9.6160   9.6160   9.9747   9.9747
    10.1010  10.1010  12.2346  12.2346  13.5178  13.5178  13.8148  13.8148
    14.7973  14.7974  15.5304  15.5304  16.2560  16.2560  16.9603  16.9603
    17.1701  17.1701  17.6858  17.6858  19.3101  19.3101  19.4567  19.4567
    19.7144  19.7144  20.7052  20.7052  20.9926  20.9926  21.1234  21.1234
    22.6682  22.6682  22.7205  22.7205  22.7956  22.7956  22.9211  22.9211
    23.9065  23.9065  24.0069  24.0069  24.2678  24.2678  24.9678  24.9678
    26.0183  26.0183  26.0684  26.0684  26.7618  26.7618  26.8525  26.8525
    27.0026  27.0026  29.4646  29.4646  29.6418  29.6418  29.8681  29.8681
    30.3759  30.3759  30.5376  30.5376  30.7203  30.7203  30.8323  30.8323
    32.1808  32.1808  32.5948  32.5948  33.0769  33.0769  33.2145  33.2145
    34.3916  34.3916  34.4354  34.4354  34.8261  34.8261  34.9159  34.9159
    35.8073  35.8073  35.9511  35.9511  36.2705  36.2705  36.3206  36.3206
    37.2495  37.2495  37.3610  37.3610  38.4942  38.4942  38.6897  38.6897
    39.2617  39.2617  39.2769  39.2769  39.4856  39.4856  39.8486  39.8486
    41.3364  41.3364  41.3830  41.3830  41.6357  41.6357  42.5697  42.5697
    42.7116  42.7116  42.9585  42.9585  43.3754  43.3754  43.4708  43.4708
    43.6331  43.6331  44.1176  44.1176  44.3453  44.3453  44.7967  44.7967
    45.4358  45.4358  45.8314  45.8314  46.5515  46.5515  46.5864  46.5864

          k = 0.6667 0.3849 0.0000 (  5509 PWs)   bands (ev):

   -66.0302 -66.0302 -41.8634 -41.8634 -39.4571 -39.4571 -39.3020 -39.3020
   -18.0957 -18.0957 -17.6254 -17.6254 -10.5146 -10.5146  -9.5423  -9.5423
    -9.2054  -9.2054  -8.0830  -8.0830  -7.0326  -7.0326  -6.5705  -6.5705
    -6.2649  -6.2649  -3.0345  -3.0345  -2.9309  -2.9309  -1.8582  -1.8582
    -1.2535  -1.2535   2.4860   2.4860   2.8600   2.8600   3.2791   3.2791
     5.1309   5.1309   5.5554   5.5554   7.0974   7.0974   7.5712   7.5712
     7.6818   7.6818   9.0642   9.0642   9.6160   9.6160   9.9747   9.9747
    10.1010  10.1010  12.2346  12.2346  13.5178  13.5178  13.8148  13.8148
    14.7973  14.7973  15.5304  15.5304  16.2561  16.2561  16.9603  16.9603
    17.1701  17.1701  17.6858  17.6858  19.3101  19.3101  19.4567  19.4567
    19.7144  19.7144  20.7052  20.7052  20.9926  20.9926  21.1234  21.1234
    22.6682  22.6682  22.7205  22.7205  22.7956  22.7956  22.9211  22.9211
    23.9066  23.9066  24.0069  24.0069  24.2678  24.2678  24.9678  24.9678
    26.0184  26.0184  26.0684  26.0684  26.7618  26.7618  26.8525  26.8525
    27.0026  27.0026  29.4646  29.4646  29.6419  29.6419  29.8681  29.8681
    30.3760  30.3760  30.5377  30.5377  30.7203  30.7203  30.8323  30.8323
    32.1808  32.1808  32.5948  32.5948  33.0769  33.0769  33.2145  33.2145
    34.3915  34.3915  34.4354  34.4354  34.8261  34.8261  34.9159  34.9159
    35.8073  35.8073  35.9510  35.9511  36.2705  36.2705  36.3206  36.3206
    37.2495  37.2495  37.3610  37.3610  38.4942  38.4942  38.6897  38.6897
    39.2617  39.2617  39.2769  39.2769  39.4856  39.4856  39.8486  39.8486
    41.3364  41.3364  41.3829  41.3829  41.6358  41.6358  42.5697  42.5697
    42.7116  42.7116  42.9586  42.9586  43.3754  43.3754  43.4708  43.4708
    43.6331  43.6331  44.1176  44.1176  44.3453  44.3453  44.7966  44.7966
    45.4358  45.4358  45.8314  45.8314  46.5515  46.5515  46.5864  46.5864

          k = 0.6667 0.7698 0.0000 (  5509 PWs)   bands (ev):

   -66.0302 -66.0302 -41.8634 -41.8634 -39.4571 -39.4571 -39.3020 -39.3020
   -18.0957 -18.0957 -17.6254 -17.6254 -10.5146 -10.5146  -9.5423  -9.5423
    -9.2054  -9.2054  -8.0830  -8.0830  -7.0326  -7.0326  -6.5705  -6.5705
    -6.2649  -6.2649  -3.0345  -3.0345  -2.9309  -2.9309  -1.8582  -1.8582
    -1.2535  -1.2535   2.4860   2.4860   2.8600   2.8600   3.2791   3.2791
     5.1309   5.1309   5.5554   5.5554   7.0974   7.0974   7.5712   7.5712
     7.6818   7.6818   9.0642   9.0642   9.6160   9.6160   9.9747   9.9747
    10.1010  10.1010  12.2346  12.2346  13.5178  13.5178  13.8148  13.8148
    14.7973  14.7974  15.5304  15.5304  16.2560  16.2560  16.9603  16.9603
    17.1701  17.1701  17.6858  17.6858  19.3101  19.3101  19.4567  19.4567
    19.7144  19.7144  20.7052  20.7052  20.9926  20.9926  21.1234  21.1234
    22.6682  22.6682  22.7205  22.7205  22.7956  22.7956  22.9211  22.9211
    23.9065  23.9065  24.0069  24.0069  24.2678  24.2678  24.9678  24.9678
    26.0183  26.0183  26.0684  26.0684  26.7618  26.7618  26.8525  26.8525
    27.0026  27.0026  29.4646  29.4646  29.6418  29.6418  29.8681  29.8681
    30.3759  30.3759  30.5376  30.5376  30.7203  30.7203  30.8323  30.8323
    32.1808  32.1808  32.5948  32.5948  33.0769  33.0769  33.2145  33.2145
    34.3916  34.3916  34.4354  34.4354  34.8261  34.8261  34.9159  34.9159
    35.8073  35.8073  35.9511  35.9511  36.2705  36.2705  36.3206  36.3206
    37.2495  37.2495  37.3610  37.3610  38.4942  38.4942  38.6897  38.6897
    39.2617  39.2617  39.2769  39.2769  39.4856  39.4856  39.8486  39.8486
    41.3364  41.3364  41.3830  41.3830  41.6357  41.6357  42.5697  42.5697
    42.7116  42.7116  42.9585  42.9585  43.3754  43.3754  43.4708  43.4708
    43.6331  43.6331  44.1176  44.1176  44.3453  44.3453  44.7967  44.7967
    45.4358  45.4358  45.8314  45.8314  46.5515  46.5515  46.5864  46.5864

          k = 0.6667 1.1547 0.0000 (  5502 PWs)   bands (ev):

   -66.0152 -66.0152 -41.9147 -41.8921 -39.4760 -39.4281 -39.4271 -39.4113
   -17.2621 -17.2177 -17.2140 -17.2021 -10.7264 -10.7186  -9.9768  -9.9413
    -9.4268  -9.3723  -8.8481  -8.8272  -8.3086  -8.2590  -7.5663  -7.5431
    -5.3076  -5.1633  -3.5012  -3.4990  -2.3603  -2.3271  -1.7586  -1.6131
    -0.3986  -0.3147   2.0068   2.1311   2.3578   2.3618   4.7438   4.7534
     5.7435   5.7898   6.3172   6.3353   7.1164   7.1364   7.2292   7.2949
     7.5304   7.5603   7.6419   7.6608   8.9347   8.9347  10.5243  10.5838
    11.6814  11.6859  12.9374  12.9376  13.2328  13.2863  13.3182  13.4560
    14.0375  14.0439  14.7947  14.8115  15.3521  15.3735  17.6655  17.6809
    19.1506  19.1507  19.7364  19.7383  19.9920  20.0193  20.1447  20.1539
    20.3216  20.3471  20.4675  20.4815  20.5138  20.5185  21.2129  21.2263
    21.6386  21.6391  21.7242  21.7268  22.5754  22.5796  22.7983  22.8535
    23.7942  23.7944  23.8422  23.8442  24.2774  24.3072  24.3081  24.3272
    24.3846  24.4097  26.5091  26.5127  26.5964  26.5987  27.8531  27.8628
    27.9661  28.0090  29.4396  29.4450  29.6100  29.6136  30.1469  30.1628
    30.3367  30.3477  30.7854  30.7898  30.8284  30.8300  31.7089  31.7347
    31.7365  31.7504  31.7635  31.7688  31.8719  31.9967  32.8892  32.8893
    32.9447  33.0040  33.2593  33.2603  34.4706  34.4748  34.9134  34.9194
    35.7233  35.7235  36.1076  36.1086  36.4542  36.4668  36.9225  36.9368
    37.2803  37.2950  37.9103  37.9131  37.9429  37.9553  38.1451  38.1512
    38.6843  38.6985  39.4071  39.4074  39.9233  39.9267  40.7418  40.7426
    40.7474  40.7541  41.0368  41.0410  41.1305  41.1569  41.6560  41.6619
    41.7241  41.7457  41.7678  41.7691  42.6854  42.6856  43.1005  43.1015
    43.4781  43.4802  45.1499  45.1528  45.3105  45.3514  45.8367  45.8426
    45.8526  46.0055  46.5252  46.5367  46.6949  46.7018  46.7733  46.8037

     highest occupied, lowest unoccupied level (ev):    -5.1633   -3.5012

     Writing all to output data dir ./MoS2.save/ :
     XML data file, pseudopotentials, collected wavefunctions
 
     init_run     :      0.17s CPU      0.26s WALL (       1 calls)
     electrons    :      6.56s CPU      7.11s WALL (       1 calls)

     Called by init_run:
     wfcinit      :      0.00s CPU      0.00s WALL (       1 calls)
     potinit      :      0.01s CPU      0.06s WALL (       1 calls)
     hinit0       :      0.15s CPU      0.15s WALL (       1 calls)

     Called by electrons:
     c_bands      :      6.56s CPU      7.11s WALL (       1 calls)
     v_of_rho     :      0.01s CPU      0.05s WALL (       1 calls)

     Called by c_bands:
     init_us_2    :      0.00s CPU      0.00s WALL (       3 calls)
     cegterg      :      6.08s CPU      6.23s WALL (       7 calls)

     Called by *egterg:
     cdiaghg      :      1.24s CPU      1.29s WALL (     123 calls)
                                        1.29s GPU  (     123 calls)
     h_psi        :      4.86s CPU      5.03s WALL (     130 calls)
                                        5.03s GPU  (     130 calls)
     g_psi        :      0.00s CPU      0.01s WALL (     120 calls)
                                        0.01s GPU  (     120 calls)

     Called by h_psi:
     h_psi:calbec :      0.04s CPU      0.11s WALL (     130 calls)
                                        0.11s GPU  (     130 calls)
     vloc_psi     :      4.77s CPU      4.88s WALL (     130 calls)
                                        4.88s GPU  (     130 calls)
     add_vuspsi   :      0.01s CPU      0.02s WALL (     130 calls)
                                        0.02s GPU  (     130 calls)

     General routines
     calbec       :      0.04s CPU      0.10s WALL (     130 calls)
     fft          :      0.00s CPU      0.02s WALL (      14 calls)
                                        0.02s GPU  (      14 calls)
     fftw         :      0.39s CPU      1.41s WALL (   45092 calls)
                                        1.13s GPU  (   45092 calls)
     davcio       :      0.05s CPU      0.12s WALL (       6 calls)
 
     Parallel routines
 
     PWSCF        :      7.03s CPU      7.81s WALL

 
   This run was terminated on:  15:49:17  25Apr2026            

=------------------------------------------------------------------------------=
   JOB DONE.
=------------------------------------------------------------------------------=
Warning: ieee_inexact is signaling
FORTRAN STOP
Warning: ieee_inexact is signaling
FORTRAN STOP
Warning: ieee_inexact is signaling
FORTRAN STOP
Warning: ieee_inexact is signaling
FORTRAN STOP
