
     Program PWSCF v.7.3.1 starts on  5Apr2026 at 18:19:20 
        Git branch: HEAD
        Last git commit: 7fd60c9bc9fe7a7d1fe6f1049f4afba0eab9aeef-dirty
        Last git commit date: Thu Feb 29 10:18:05 2024 +0000
        Last git commit subject: Merge branch 'master_qe_7.3.1' into 'master'

     This program is part of the open-source Quantum ESPRESSO suite
     for quantum simulation of materials; please cite
         "P. Giannozzi et al., J. Phys.:Condens. Matter 21 395502 (2009);
         "P. Giannozzi et al., J. Phys.:Condens. Matter 29 465901 (2017);
         "P. Giannozzi et al., J. Chem. Phys. 152 154105 (2020);
          URL http://www.quantum-espresso.org", 
     in publications or presentations arising from this work. More details at
     http://www.quantum-espresso.org/quote

     Parallel version (MPI & OpenMP), running on      64 processor cores
     Number of MPI processes:                 4
     Threads/MPI process:                    16

     MPI processes distributed on     1 nodes
     229851 MiB available memory on the printing compute node when the environment starts
 
     Reading input from scf.in

     Current dimensions of program PWSCF are:
     Max number of different atomic species (ntypx) = 10
     Max number of k-points (npk) =  40000
     Max angular momentum in pseudopotentials (lmaxx) =  4
 
     K-points division:     npool     =       4
     Subspace diagonalization in iterative solution of the eigenvalue problem:
     a serial algorithm will be used

 
     G-vector sticks info
     --------------------
     sticks:   dense  smooth     PW     G-vecs:    dense   smooth      PW
     Sum         301     301     91                15631    15631    2775
 
     Using Slab Decomposition
 


     bravais-lattice index     =            0
     lattice parameter (alat)  =       5.9796  a.u.
     unit-cell volume          =     702.2012 (a.u.)^3
     number of atoms/cell      =            3
     number of atomic types    =            2
     number of electrons       =        26.00
     number of Kohn-Sham states=           34
     kinetic-energy cutoff     =      30.0000  Ry
     charge density cutoff     =     120.0000  Ry
     scf convergence threshold =      1.0E-10
     mixing beta               =       0.7000
     number of iterations used =            8  plain     mixing
     Exchange-correlation= PBE
                           (   1   4   3   4   0   0   0)
     Non magnetic calculation with spin-orbit


     GPU acceleration is ACTIVE.  4 visible GPUs per MPI rank


     celldm(1)=   5.979645  celldm(2)=   0.000000  celldm(3)=   0.000000
     celldm(4)=   0.000000  celldm(5)=   0.000000  celldm(6)=   0.000000

     crystal axes: (cart. coord. in units of alat)
               a(1) = (   1.000000   0.000000   0.000000 )  
               a(2) = (  -0.499999   0.866025   0.000000 )  
               a(3) = (   0.000000   0.000000   3.792318 )  

     reciprocal axes: (cart. coord. in units 2 pi/alat)
               b(1) = (  1.000000  0.577349 -0.000000 )  
               b(2) = (  0.000000  1.154701  0.000000 )  
               b(3) = (  0.000000 -0.000000  0.263691 )  


     PseudoPot. # 1 for Mo read from file:
     ./Mo.upf
     MD5 check sum: 4e1c3579de4f68baf863f15f5be96aa1
     Pseudo is Norm-conserving + core correction, Zval = 14.0
     Generated using ONCVPSP code by D. R. Hamann
     Using radial grid of 1640 points, 10 beta functions with: 
                l(1) =   0
                l(2) =   0
                l(3) =   1
                l(4) =   1
                l(5) =   1
                l(6) =   1
                l(7) =   2
                l(8) =   2
                l(9) =   2
               l(10) =   2

     PseudoPot. # 2 for S  read from file:
     ./S.upf
     MD5 check sum: a7319d53700e7dada26ada44d0048388
     Pseudo is Norm-conserving + core correction, Zval =  6.0
     Generated using ONCVPSP code by D. R. Hamann
     Using radial grid of 1146 points, 10 beta functions with: 
                l(1) =   0
                l(2) =   0
                l(3) =   1
                l(4) =   1
                l(5) =   1
                l(6) =   1
                l(7) =   2
                l(8) =   2
                l(9) =   2
               l(10) =   2

     atomic species   valence    mass     pseudopotential
     Mo               14.00    95.94000     Mo( 1.00)
     S                 6.00    32.07000     S ( 1.00)

     No symmetry found



   Cartesian axes

     site n.     atom                  positions (alat units)
         1        Mo     tau(   1) = (   0.5000009   0.2886748   0.0000000  )
         2        S      tau(   2) = (   0.0000003   0.5773505   0.5003129  )
         3        S      tau(   3) = (   0.0000003   0.5773505  -0.5003129  )

     number of k points=     5
                       cart. coord. in units 2pi/alat
        k(    1) = (   0.0000000   0.0000000   0.0000000), wk =   0.1111111
        k(    2) = (   0.0000000   0.3849002   0.0000000), wk =   0.2222222
        k(    3) = (   0.3333333   0.1924496   0.0000000), wk =   0.2222222
        k(    4) = (   0.3333333   0.5773498   0.0000000), wk =   0.2222222
        k(    5) = (   0.3333333  -0.1924506   0.0000000), wk =   0.2222222

     Dense  grid:    15631 G-vectors     FFT dimensions: (  24,  24,  80)

     Estimated max dynamical RAM per process >      60.55 MB

     Estimated total dynamical RAM >     196.42 MB
 ----2D----2D----2D----2D----2D----2D----2D----2D----2D----2D----2D----2D
  The code is running with the 2D cutoff
  Please refer to:
  Sohier, T., Calandra, M., & Mauri, F. (2017), 
  Density functional perturbation theory for gated two-dimensional heterostructures:
  Theoretical developments and application to flexural phonons in graphene.
  Physical Review B, 96(7), 75448. https://doi.org/10.1103/PhysRevB.96.075448
 ----2D----2D----2D----2D----2D----2D----2D----2D----2D----2D----2D----2D

     Initial potential from superposition of free atoms

     starting charge      25.9985, renormalised to      26.0000

     negative rho (up, down):  2.017E-03 0.000E+00
     Starting wfcs are   36 randomized atomic wfcs

     total cpu time spent up to now is        0.6 secs

     per-process dynamical memory:   310.2 Mb

     Self-consistent Calculation

     iteration #  1     ecut=    30.00 Ry     beta= 0.70
     Davidson diagonalization with overlap
     ethr =  1.00E-02,  avg # of iterations =  3.0

     negative rho (up, down):  4.373E-04 0.000E+00

     total cpu time spent up to now is        0.8 secs

     total energy              =    -184.02722960 Ry
     estimated scf accuracy    <       0.58250580 Ry

     iteration #  2     ecut=    30.00 Ry     beta= 0.70
     Davidson diagonalization with overlap
     ethr =  2.24E-03,  avg # of iterations =  3.0

     negative rho (up, down):  3.526E-04 0.000E+00

     total cpu time spent up to now is        0.9 secs

     total energy              =    -183.50834130 Ry
     estimated scf accuracy    <       5.91365234 Ry

     iteration #  3     ecut=    30.00 Ry     beta= 0.70
     Davidson diagonalization with overlap
     ethr =  2.24E-03,  avg # of iterations =  3.0

     negative rho (up, down):  1.346E-04 0.000E+00

     total cpu time spent up to now is        1.0 secs

     total energy              =    -184.33817473 Ry
     estimated scf accuracy    <       0.17402383 Ry

     iteration #  4     ecut=    30.00 Ry     beta= 0.70
     Davidson diagonalization with overlap
     ethr =  6.69E-04,  avg # of iterations =  2.0

     negative rho (up, down):  7.818E-06 0.000E+00

     total cpu time spent up to now is        1.1 secs

     total energy              =    -184.35489124 Ry
     estimated scf accuracy    <       0.00696598 Ry

     iteration #  5     ecut=    30.00 Ry     beta= 0.70
     Davidson diagonalization with overlap
     ethr =  2.68E-05,  avg # of iterations =  3.8

     negative rho (up, down):  2.584E-06 0.000E+00

     total cpu time spent up to now is        1.3 secs

     total energy              =    -184.35673072 Ry
     estimated scf accuracy    <       0.00350102 Ry

     iteration #  6     ecut=    30.00 Ry     beta= 0.70
     Davidson diagonalization with overlap
     ethr =  1.35E-05,  avg # of iterations =  2.8

     total cpu time spent up to now is        1.4 secs

     total energy              =    -184.35685113 Ry
     estimated scf accuracy    <       0.00275407 Ry

     iteration #  7     ecut=    30.00 Ry     beta= 0.70
     Davidson diagonalization with overlap
     ethr =  1.06E-05,  avg # of iterations =  2.0

     total cpu time spent up to now is        1.5 secs

     total energy              =    -184.35709529 Ry
     estimated scf accuracy    <       0.00009298 Ry

     iteration #  8     ecut=    30.00 Ry     beta= 0.70
     Davidson diagonalization with overlap
     ethr =  3.58E-07,  avg # of iterations =  3.8

     total cpu time spent up to now is        1.6 secs

     total energy              =    -184.35711804 Ry
     estimated scf accuracy    <       0.00001058 Ry

     iteration #  9     ecut=    30.00 Ry     beta= 0.70
     Davidson diagonalization with overlap
     ethr =  4.07E-08,  avg # of iterations =  2.0

     total cpu time spent up to now is        1.7 secs

     total energy              =    -184.35711915 Ry
     estimated scf accuracy    <       0.00000111 Ry

     iteration # 10     ecut=    30.00 Ry     beta= 0.70
     Davidson diagonalization with overlap
     ethr =  4.26E-09,  avg # of iterations =  3.0

     total cpu time spent up to now is        1.9 secs

     total energy              =    -184.35711920 Ry
     estimated scf accuracy    <       0.00000020 Ry

     iteration # 11     ecut=    30.00 Ry     beta= 0.70
     Davidson diagonalization with overlap
     ethr =  7.68E-10,  avg # of iterations =  3.0

     total cpu time spent up to now is        2.0 secs

     total energy              =    -184.35711925 Ry
     estimated scf accuracy    <       0.00000002 Ry

     iteration # 12     ecut=    30.00 Ry     beta= 0.70
     Davidson diagonalization with overlap
     ethr =  6.00E-11,  avg # of iterations =  2.2

     total cpu time spent up to now is        2.1 secs

     total energy              =    -184.35711925 Ry
     estimated scf accuracy    <          4.7E-09 Ry

     iteration # 13     ecut=    30.00 Ry     beta= 0.70
     Davidson diagonalization with overlap
     ethr =  1.83E-11,  avg # of iterations =  2.8

     total cpu time spent up to now is        2.2 secs

     End of self-consistent calculation

          k = 0.0000 0.0000 0.0000 (  1947 PWs)   bands (ev):

   -65.3723 -65.3723 -41.9973 -41.9973 -39.4973 -39.4973 -39.2729 -39.2729
   -19.3986 -19.3986 -18.2143 -18.2143 -10.8738 -10.8738  -7.8157  -7.8157
    -7.7598  -7.7598  -7.1453  -7.1453  -6.7798  -6.7798  -6.6991  -6.6991
    -5.3861  -5.3861  -2.5815  -2.5815  -2.5057  -2.5057  -2.3325  -2.3325
    -2.3266  -2.3266

          k = 0.0000 0.3849 0.0000 (  1963 PWs)   bands (ev):

   -65.3928 -65.3928 -42.0804 -42.0804 -39.5767 -39.5767 -39.4266 -39.4266
   -18.0845 -18.0845 -17.6388 -17.6388 -10.5247 -10.5247  -9.5666  -9.5666
    -9.1763  -9.1763  -8.1203  -8.1203  -7.0441  -7.0441  -6.5951  -6.5951
    -6.2899  -6.2899  -3.0565  -3.0565  -2.9546  -2.9546  -1.8636  -1.8636
    -1.2639  -1.2639

          k = 0.3333 0.1924 0.0000 (  1963 PWs)   bands (ev):

   -65.3928 -65.3928 -42.0804 -42.0804 -39.5767 -39.5767 -39.4266 -39.4266
   -18.0845 -18.0845 -17.6388 -17.6388 -10.5247 -10.5247  -9.5666  -9.5666
    -9.1763  -9.1763  -8.1203  -8.1203  -7.0441  -7.0441  -6.5951  -6.5951
    -6.2899  -6.2899  -3.0565  -3.0565  -2.9546  -2.9546  -1.8636  -1.8636
    -1.2639  -1.2639

          k = 0.3333 0.5773 0.0000 (  1917 PWs)   bands (ev):

   -65.2895 -65.2895 -42.1222 -42.1000 -39.5822 -39.5384 -39.5345 -39.5225
   -17.2737 -17.2308 -17.2274 -17.2107 -10.7606 -10.7514  -9.9251  -9.8897
    -9.4418  -9.3824  -8.8650  -8.8400  -8.3141  -8.2645  -7.5880  -7.5664
    -5.3262  -5.1936  -3.4936  -3.4900  -2.3491  -2.3189  -1.7376  -1.6075
    -0.3969  -0.3202

          k = 0.3333-0.1925 0.0000 (  1963 PWs)   bands (ev):

   -65.3928 -65.3928 -42.0804 -42.0804 -39.5767 -39.5767 -39.4266 -39.4266
   -18.0845 -18.0845 -17.6388 -17.6388 -10.5247 -10.5247  -9.5666  -9.5666
    -9.1763  -9.1763  -8.1203  -8.1203  -7.0441  -7.0441  -6.5951  -6.5951
    -6.2899  -6.2899  -3.0565  -3.0565  -2.9546  -2.9546  -1.8637  -1.8637
    -1.2639  -1.2639

     highest occupied, lowest unoccupied level (ev):    -5.1936   -3.4936

!    total energy              =    -184.35711925 Ry
     estimated scf accuracy    <          7.4E-11 Ry

     The total energy is the sum of the following terms:
     one-electron contribution =    -881.09453495 Ry
     hartree contribution      =     436.75812981 Ry
     xc contribution           =     -33.29555647 Ry
     ewald contribution        =     293.27484235 Ry

     convergence has been achieved in  13 iterations

     Writing all to output data dir ./MoS2.save/ :
     XML data file, charge density, pseudopotentials, collected wavefunctions
 
     init_run     :      0.21s CPU      0.39s WALL (       1 calls)
     electrons    :      1.51s CPU      1.59s WALL (       1 calls)

     Called by init_run:
     wfcinit      :      0.08s CPU      0.18s WALL (       1 calls)
     potinit      :      0.02s CPU      0.07s WALL (       1 calls)
     hinit0       :      0.11s CPU      0.13s WALL (       1 calls)

     Called by electrons:
     c_bands      :      1.16s CPU      1.19s WALL (      13 calls)
     sum_band     :      0.19s CPU      0.20s WALL (      13 calls)
     v_of_rho     :      0.02s CPU      0.07s WALL (      14 calls)
     mix_rho      :      0.12s CPU      0.13s WALL (      13 calls)

     Called by c_bands:
     init_us_2    :      0.01s CPU      0.01s WALL (      54 calls)
     cegterg      :      1.10s CPU      1.13s WALL (      26 calls)

     Called by *egterg:
     cdiaghg      :      0.18s CPU      0.23s WALL (      96 calls)
                                        0.23s GPU  (      96 calls)
     h_psi        :      0.94s CPU      1.01s WALL (      98 calls)
                                        1.01s GPU  (      98 calls)
     g_psi        :      0.00s CPU      0.00s WALL (      70 calls)
                                        0.00s GPU  (      70 calls)

     Called by h_psi:
     h_psi:calbec :      0.02s CPU      0.07s WALL (      98 calls)
                                        0.07s GPU  (      98 calls)
     vloc_psi     :      0.90s CPU      0.92s WALL (      98 calls)
                                        0.92s GPU  (      98 calls)
     add_vuspsi   :      0.01s CPU      0.01s WALL (      98 calls)
                                        0.01s GPU  (      98 calls)

     General routines
     calbec       :      0.02s CPU      0.07s WALL (      98 calls)
     fft          :      0.00s CPU      0.04s WALL (     218 calls)
                                        0.04s GPU  (     218 calls)
     ffts         :      0.00s CPU      0.00s WALL (      52 calls)
                                        0.00s GPU  (      52 calls)
     fftw         :      0.10s CPU      0.30s WALL (   11452 calls)
                                        0.23s GPU  (   11452 calls)
 
     Parallel routines
 
     PWSCF        :      1.97s CPU      2.24s WALL

 
   This run was terminated on:  18:19:22   5Apr2026            

=------------------------------------------------------------------------------=
   JOB DONE.
=------------------------------------------------------------------------------=
Warning: ieee_invalid is signaling
Warning: ieee_inexact is signaling
FORTRAN STOP
Warning: ieee_invalid is signaling
Warning: ieee_inexact is signaling
FORTRAN STOP
Warning: ieee_invalid is signaling
Warning: ieee_inexact is signaling
FORTRAN STOP
Warning: ieee_inexact is signaling
FORTRAN STOP
