
     Program PWSCF v.7.5 starts on 16Jun2026 at  0:53:55 

     This program is part of the open-source Quantum ESPRESSO suite
     for quantum simulation of materials; please cite
         "P. Giannozzi et al., J. Phys.:Condens. Matter 21 395502 (2009);
         "P. Giannozzi et al., J. Phys.:Condens. Matter 29 465901 (2017);
         "P. Giannozzi et al., J. Chem. Phys. 152 154105 (2020);
          URL http://www.quantum-espresso.org", 
     in publications or presentations arising from this work. More details at
     http://www.quantum-espresso.org/quote

     Parallel version (MPI & OpenMP), running on      64 processor cores
     Number of MPI processes:                 4
     Threads/MPI process:                    16

     MPI processes distributed on     1 nodes
     241495 MiB available memory on the printing compute node when the environment starts
 
     Reading input from scf.in

     Current dimensions of program PWSCF are:
     Max number of different atomic species (ntypx) = 10
     Max number of k-points (npk) =  40000
     Max angular momentum in pseudopotentials (lmaxx) =  4

     Fixed quantization axis for GGA:     0.000000    0.000000    1.000000
     Message from routine setup:
     using ibrav=0 with symmetry is DISCOURAGED, use correct ibrav instead
 
     K-points division:     npool     =       4
     Subspace diagonalization in iterative solution of the eigenvalue problem:
     a serial algorithm will be used

     Message from routine divide_et_impera:
     suboptimal parallelization: some nodes have no k-points
 
     G-vector sticks info
     --------------------
     sticks:   dense  smooth     PW     G-vecs:    dense   smooth      PW
     Sum        1393    1393    379               110147   110147   16329
 
     Using Slab Decomposition
 


     bravais-lattice index     =            0
     lattice parameter (alat)  =      12.9767  a.u.
     unit-cell volume          =    4960.5953 (a.u.)^3
     number of atoms/cell      =            8
     number of atomic types    =            2
     number of electrons       =        70.00
     number of Kohn-Sham states=           86
     kinetic-energy cutoff     =      30.0000  Ry
     charge density cutoff     =     120.0000  Ry
     scf convergence threshold =      1.0E-09
     mixing beta               =       0.3000
     number of iterations used =            8  plain     mixing
     Exchange-correlation= PBE
                           (   1   4   3   4   0   0   0)
     Noncollinear calculation with spin-orbit


     GPU acceleration is ACTIVE.  4 visible GPUs per MPI rank


     GPU used by master process:

        Device Number: 0
        Device name: NVIDIA A100-SXM4-40GB
        Compute capability : 80
        Ratio of single to double precision performance  : 2
        Memory Clock Rate (KHz): 1215000
        Memory Bus Width (bits): 5120
        Peak Memory Bandwidth (GB/s): ******

     celldm(1)=  12.976749  celldm(2)=   0.000000  celldm(3)=   0.000000
     celldm(4)=   0.000000  celldm(5)=   0.000000  celldm(6)=   0.000000

     crystal axes: (cart. coord. in units of alat)
               a(1) = (   1.000000   0.000000   0.000000 )  
               a(2) = (  -0.500000   0.866025   0.000000 )  
               a(3) = (   0.000000   0.000000   2.621232 )  

     reciprocal axes: (cart. coord. in units 2 pi/alat)
               b(1) = (  1.000000  0.577350 -0.000000 )  
               b(2) = (  0.000000  1.154701  0.000000 )  
               b(3) = (  0.000000 -0.000000  0.381500 )  


     PseudoPot. # 1 for Cr read from file:
     ./Cr.upf
     MD5 check sum: e4755fb39f753e55e5d2a46de4395b17
     Pseudo is Norm-conserving + core correction, Zval = 14.0
     Generated using ONCVPSP code by D. R. Hamann
     Using radial grid of 1638 points, 10 beta functions with: 
                l(1) =   0
                l(2) =   0
                l(3) =   1
                l(4) =   1
                l(5) =   1
                l(6) =   1
                l(7) =   2
                l(8) =   2
                l(9) =   2
               l(10) =   2

     PseudoPot. # 2 for I  read from file:
     ./I.upf
     MD5 check sum: 301f7009ca0a2b18b0adf53dca02d42f
     Pseudo is Norm-conserving + core correction, Zval =  7.0
     Generated using ONCVPSP code by D. R. Hamann
     Using radial grid of 1210 points, 10 beta functions with: 
                l(1) =   0
                l(2) =   0
                l(3) =   1
                l(4) =   1
                l(5) =   1
                l(6) =   1
                l(7) =   2
                l(8) =   2
                l(9) =   2
               l(10) =   2

     atomic species   valence    mass     pseudopotential
     Cr               14.00    51.99600     Cr( 1.00)
     I                 7.00   126.90400     I ( 1.00)

      6 Sym. Ops., with inversion, found


                                    s                        frac. trans.

      isym =  1     identity                                     

 Time Reversal             0
 cryst.   s( 1) = (     1          0          0      )
                  (     0          1          0      )
                  (     0          0          1      )

 cart.    s( 1) = (  1.0000000  0.0000000  0.0000000 )
                  (  0.0000000  1.0000000  0.0000000 )
                  (  0.0000000  0.0000000  1.0000000 )


      isym =  2     120 deg rotation - cryst. axis [0,0,1]       

 Time Reversal             0
 cryst.   s( 2) = (     0          1          0      )
                  (    -1         -1          0      )
                  (     0          0          1      )

 cart.    s( 2) = ( -0.5000000 -0.8660255  0.0000000 )
                  (  0.8660253 -0.5000000  0.0000000 )
                  (  0.0000000  0.0000000  1.0000000 )


      isym =  3     120 deg rotation - cryst. axis [0,0,-1]      

 Time Reversal             0
 cryst.   s( 3) = (    -1         -1          0      )
                  (     1          0          0      )
                  (     0          0          1      )

 cart.    s( 3) = ( -0.5000000  0.8660255  0.0000000 )
                  ( -0.8660253 -0.5000000  0.0000000 )
                  (  0.0000000  0.0000000  1.0000000 )


      isym =  4     inversion                                    

 Time Reversal             0
 cryst.   s( 4) = (    -1          0          0      )
                  (     0         -1          0      )
                  (     0          0         -1      )

 cart.    s( 4) = ( -1.0000000  0.0000000  0.0000000 )
                  (  0.0000000 -1.0000000  0.0000000 )
                  (  0.0000000  0.0000000 -1.0000000 )


      isym =  5     inv. 120 deg rotation - cryst. axis [0,0,1]  

 Time Reversal             0
 cryst.   s( 5) = (     0         -1          0      )
                  (     1          1          0      )
                  (     0          0         -1      )

 cart.    s( 5) = (  0.5000000  0.8660255  0.0000000 )
                  ( -0.8660253  0.5000000  0.0000000 )
                  (  0.0000000  0.0000000 -1.0000000 )


      isym =  6     inv. 120 deg rotation - cryst. axis [0,0,-1] 

 Time Reversal             0
 cryst.   s( 6) = (     1          1          0      )
                  (    -1          0          0      )
                  (     0          0         -1      )

 cart.    s( 6) = (  0.5000000 -0.8660255  0.0000000 )
                  (  0.8660253  0.5000000  0.0000000 )
                  (  0.0000000  0.0000000 -1.0000000 )


   Cartesian axes

     site n.     atom                  positions (alat units)
         1        Cr     tau(   1) = (  -0.0000000   0.5773502   0.0009902  )
         2        Cr     tau(   2) = (   0.5000000   0.2886751   2.6202417  )
         3        I      tau(   3) = (  -0.1495050   0.8649890   2.3934629  )
         4        I      tau(   4) = (  -0.1743500   0.3040557   2.3934629  )
         5        I      tau(   5) = (   0.3238550   0.5630060   2.3934629  )
         6        I      tau(   6) = (   0.6495050   0.0010363   0.2277690  )
         7        I      tau(   7) = (   0.6743500   0.5619696   0.2277690  )
         8        I      tau(   8) = (   0.1761450   0.3030194   0.2277690  )

   Crystallographic axes

     site n.     atom                  positions (cryst. coord.)
         1        Cr     tau(   1) = (  0.3333333  0.6666667  0.0003778  )
         2        Cr     tau(   2) = (  0.6666667  0.3333333  0.9996222  )
         3        I      tau(   3) = (  0.3498967  0.9988033  0.9131061  )
         4        I      tau(   4) = (  0.0011967  0.3510934  0.9131061  )
         5        I      tau(   5) = (  0.6489066  0.6501033  0.9131061  )
         6        I      tau(   6) = (  0.6501033  0.0011967  0.0868939  )
         7        I      tau(   7) = (  0.9988033  0.6489066  0.0868939  )
         8        I      tau(   8) = (  0.3510934  0.3498967  0.0868939  )

     number of k points=     3
                       cart. coord. in units 2pi/alat
        k(    1) = (   0.0000000   0.0000000   0.0000000), wk =   0.1111111
        k(    2) = (   0.0000000   0.3849002   0.0000000), wk =   0.6666667
        k(    3) = (   0.3333333   0.5773503   0.0000000), wk =   0.2222222

                       cryst. coord.
        k(    1) = (   0.0000000   0.0000000   0.0000000), wk =   0.1111111
        k(    2) = (   0.0000000   0.3333333   0.0000000), wk =   0.6666667
        k(    3) = (   0.3333333   0.3333333   0.0000000), wk =   0.2222222

     Dense  grid:   110147 G-vectors     FFT dimensions: (  45,  45, 120)

     Dynamical RAM for                 wfc:      36.13 MB

     Dynamical RAM for     wfc (w. buffer):      36.13 MB

     Dynamical RAM for           str. fact:       3.36 MB

     Dynamical RAM for           local pot:       0.00 MB

     Dynamical RAM for          nlocal pot:      57.13 MB

     Dynamical RAM for                qrad:       4.61 MB

     Dynamical RAM for          rho,v,vnew:      42.42 MB

     Dynamical RAM for               rhoin:      14.14 MB

     Dynamical RAM for            rho*nmix:     107.57 MB

     Dynamical RAM for           G-vectors:       7.14 MB

     Dynamical RAM for          h,s,v(r/c):       5.42 MB

     Dynamical RAM for          <psi|beta>:       0.71 MB

     Dynamical RAM for                 psi:     144.51 MB

     Dynamical RAM for                hpsi:     144.51 MB

     Dynamical RAM for      wfcinit/wfcrot:      54.36 MB

     Estimated static dynamical RAM per process >     184.80 MB

     Estimated max dynamical RAM per process >     587.51 MB

     Estimated total dynamical RAM >       1.98 GB
 ----2D----2D----2D----2D----2D----2D----2D----2D----2D----2D----2D----2D
  The code is running with the 2D cutoff
  Please refer to:
  Sohier, T., Calandra, M., & Mauri, F. (2017), 
  Density functional perturbation theory for gated two-dimensional heterostructures:
  Theoretical developments and application to flexural phonons in graphene.
  Physical Review B, 96(7), 75448. https://doi.org/10.1103/PhysRevB.96.075448
 ----2D----2D----2D----2D----2D----2D----2D----2D----2D----2D----2D----2D

     Check: negative core charge=   -0.000380
     Generating pointlists ...
     new r_m :   0.1637 (alat units)  2.1238 (a.u.) for type    1
     new r_m :   0.1637 (alat units)  2.1238 (a.u.) for type    2

     Initial potential from superposition of free atoms

     starting charge      69.9966, renormalised to      70.0000

     negative rho (up, down):  3.192E-02 1.062E-03

 ==============================================================================
     atom number    1 relative position :   -0.0000   0.5774   0.0010
     charge :    12.694118  (integrated on a sphere of radius 0.164)
     magnetization :          0.000000    0.000000    6.179832
     magnetization/charge:    0.000000    0.000000    0.486826
     polar coord.: r, theta, phi [deg] :     6.179832    0.000000  360.000000

 ==============================================================================

 ==============================================================================
     atom number    2 relative position :    0.5000   0.2887   2.6202
     charge :    12.694118  (integrated on a sphere of radius 0.164)
     magnetization :          0.000000    0.000000    6.179832
     magnetization/charge:    0.000000    0.000000    0.486826
     polar coord.: r, theta, phi [deg] :     6.179832    0.000000  360.000000

 ==============================================================================

 ==============================================================================
     atom number    3 relative position :   -0.1495   0.8650   2.3935
     charge :     4.070084  (integrated on a sphere of radius 0.164)
     magnetization :          0.000000    0.000000    0.040845
     magnetization/charge:    0.000000    0.000000    0.010035
     polar coord.: r, theta, phi [deg] :     0.040845    0.000000  360.000000

 ==============================================================================

 ==============================================================================
     atom number    4 relative position :   -0.1744   0.3041   2.3935
     charge :     4.070084  (integrated on a sphere of radius 0.164)
     magnetization :          0.000000    0.000000    0.040845
     magnetization/charge:    0.000000    0.000000    0.010035
     polar coord.: r, theta, phi [deg] :     0.040845    0.000000  360.000000

 ==============================================================================

 ==============================================================================
     atom number    5 relative position :    0.3239   0.5630   2.3935
     charge :     4.070084  (integrated on a sphere of radius 0.164)
     magnetization :          0.000000    0.000000    0.040845
     magnetization/charge:    0.000000    0.000000    0.010035
     polar coord.: r, theta, phi [deg] :     0.040845    0.000000  360.000000

 ==============================================================================

 ==============================================================================
     atom number    6 relative position :    0.6495   0.0010   0.2278
     charge :     4.070084  (integrated on a sphere of radius 0.164)
     magnetization :          0.000000    0.000000    0.040845
     magnetization/charge:    0.000000    0.000000    0.010035
     polar coord.: r, theta, phi [deg] :     0.040845    0.000000  360.000000

 ==============================================================================

 ==============================================================================
     atom number    7 relative position :    0.6743   0.5620   0.2278
     charge :     4.070084  (integrated on a sphere of radius 0.164)
     magnetization :          0.000000    0.000000    0.040845
     magnetization/charge:    0.000000    0.000000    0.010035
     polar coord.: r, theta, phi [deg] :     0.040845    0.000000  360.000000

 ==============================================================================

 ==============================================================================
     atom number    8 relative position :    0.1761   0.3030   0.2278
     charge :     4.070084  (integrated on a sphere of radius 0.164)
     magnetization :          0.000000    0.000000    0.040845
     magnetization/charge:    0.000000    0.000000    0.010035
     polar coord.: r, theta, phi [deg] :     0.040845    0.000000  360.000000

 ==============================================================================
     Starting wfcs are   88 randomized atomic wfcs

     total cpu time spent up to now is        2.2 secs

     per-process dynamical memory:   438.8 Mb

     Self-consistent Calculation
[tb_dev] Currently allocated     2.62E+00 Mbytes, locked:    0 /   3
[tb_pin] Currently allocated     0.00E+00 Mbytes, locked:    0 /   0

     iteration #  1     ecut=    30.00 Ry     beta= 0.30
     Davidson diagonalization with overlap

---- Real-time Memory Report at c_bands before calling an iterative solver
           828 MiB given to the printing process from OS
           449 MiB allocation reported by mallinfo(arena+hblkhd)
        239931 MiB available memory on the node where the printing process lives
     GPU memory used/free/total (MiB): 1350 / 39090 / 40440
------------------
     ethr =  1.00E-02,  avg # of iterations =  7.0

     negative rho (up, down):  1.326E-02 2.721E-02

     total cpu time spent up to now is        2.5 secs

     total energy              =    -503.96536864 Ry
     estimated scf accuracy    <      11.09314158 Ry

     total magnetization       =    -0.00     0.00     5.75 Bohr mag/cell
     absolute magnetization    =     5.87 Bohr mag/cell
[tb_dev] Currently allocated     0.00E+00 Mbytes, locked:    0 /   0
[tb_pin] Currently allocated     0.00E+00 Mbytes, locked:    0 /   0

     iteration #  2     ecut=    30.00 Ry     beta= 0.30
     Davidson diagonalization with overlap

---- Real-time Memory Report at c_bands before calling an iterative solver
           916 MiB given to the printing process from OS
           623 MiB allocation reported by mallinfo(arena+hblkhd)
        239730 MiB available memory on the node where the printing process lives
     GPU memory used/free/total (MiB): 1732 / 38708 / 40440
------------------
     ethr =  1.00E-02,  avg # of iterations =  6.3

     negative rho (up, down):  1.075E-02 2.269E-02

     total cpu time spent up to now is        2.8 secs

     total energy              =    -505.64749084 Ry
     estimated scf accuracy    <       6.43512965 Ry

     total magnetization       =     0.00    -0.00     6.07 Bohr mag/cell
     absolute magnetization    =     7.69 Bohr mag/cell
[tb_dev] Currently allocated     0.00E+00 Mbytes, locked:    0 /   0
[tb_pin] Currently allocated     0.00E+00 Mbytes, locked:    0 /   0

     iteration #  3     ecut=    30.00 Ry     beta= 0.30
     Davidson diagonalization with overlap

---- Real-time Memory Report at c_bands before calling an iterative solver
           946 MiB given to the printing process from OS
           636 MiB allocation reported by mallinfo(arena+hblkhd)
        239685 MiB available memory on the node where the printing process lives
     GPU memory used/free/total (MiB): 1742 / 38698 / 40440
------------------
     ethr =  9.19E-03,  avg # of iterations =  2.3

     negative rho (up, down):  3.603E-03 1.184E-02

     total cpu time spent up to now is        3.0 secs

     total energy              =    -506.65488237 Ry
     estimated scf accuracy    <       0.78868740 Ry

     total magnetization       =     0.00    -0.00     6.02 Bohr mag/cell
     absolute magnetization    =     7.17 Bohr mag/cell
[tb_dev] Currently allocated     0.00E+00 Mbytes, locked:    0 /   0
[tb_pin] Currently allocated     0.00E+00 Mbytes, locked:    0 /   0

     iteration #  4     ecut=    30.00 Ry     beta= 0.30
     Davidson diagonalization with overlap

---- Real-time Memory Report at c_bands before calling an iterative solver
          1005 MiB given to the printing process from OS
           663 MiB allocation reported by mallinfo(arena+hblkhd)
        239623 MiB available memory on the node where the printing process lives
     GPU memory used/free/total (MiB): 1742 / 38698 / 40440
------------------
     ethr =  1.13E-03,  avg # of iterations =  4.7

     negative rho (up, down):  2.204E-03 9.605E-03

     total cpu time spent up to now is        3.2 secs

     total energy              =    -506.77504040 Ry
     estimated scf accuracy    <       0.11608960 Ry

     total magnetization       =    -0.00    -0.00     6.03 Bohr mag/cell
     absolute magnetization    =     7.50 Bohr mag/cell
[tb_dev] Currently allocated     0.00E+00 Mbytes, locked:    0 /   0
[tb_pin] Currently allocated     0.00E+00 Mbytes, locked:    0 /   0

     iteration #  5     ecut=    30.00 Ry     beta= 0.30
     Davidson diagonalization with overlap

---- Real-time Memory Report at c_bands before calling an iterative solver
          1029 MiB given to the printing process from OS
           677 MiB allocation reported by mallinfo(arena+hblkhd)
        239602 MiB available memory on the node where the printing process lives
     GPU memory used/free/total (MiB): 1742 / 38698 / 40440
------------------
     ethr =  1.66E-04,  avg # of iterations =  5.0

     negative rho (up, down):  3.552E-08 3.218E-03

     total cpu time spent up to now is        3.4 secs

     total energy              =    -506.79821327 Ry
     estimated scf accuracy    <       0.03628778 Ry

     total magnetization       =    -0.00     0.00     6.02 Bohr mag/cell
     absolute magnetization    =     7.33 Bohr mag/cell
[tb_dev] Currently allocated     0.00E+00 Mbytes, locked:    0 /   0
[tb_pin] Currently allocated     0.00E+00 Mbytes, locked:    0 /   0

     iteration #  6     ecut=    30.00 Ry     beta= 0.30
     Davidson diagonalization with overlap

---- Real-time Memory Report at c_bands before calling an iterative solver
          1045 MiB given to the printing process from OS
           690 MiB allocation reported by mallinfo(arena+hblkhd)
        239578 MiB available memory on the node where the printing process lives
     GPU memory used/free/total (MiB): 1742 / 38698 / 40440
------------------
     ethr =  5.18E-05,  avg # of iterations =  3.7

     negative rho (up, down):  1.064E-08 2.979E-03

     total cpu time spent up to now is        3.6 secs

     total energy              =    -506.80331650 Ry
     estimated scf accuracy    <       0.00570770 Ry

     total magnetization       =     0.00    -0.00     6.02 Bohr mag/cell
     absolute magnetization    =     7.11 Bohr mag/cell
[tb_dev] Currently allocated     0.00E+00 Mbytes, locked:    0 /   0
[tb_pin] Currently allocated     0.00E+00 Mbytes, locked:    0 /   0

     iteration #  7     ecut=    30.00 Ry     beta= 0.30
     Davidson diagonalization with overlap

---- Real-time Memory Report at c_bands before calling an iterative solver
          1062 MiB given to the printing process from OS
           704 MiB allocation reported by mallinfo(arena+hblkhd)
        239557 MiB available memory on the node where the printing process lives
     GPU memory used/free/total (MiB): 1742 / 38698 / 40440
------------------
     ethr =  8.15E-06,  avg # of iterations =  6.7

     negative rho (up, down):  2.454E-08 2.807E-03

     total cpu time spent up to now is        3.9 secs

     total energy              =    -506.80400701 Ry
     estimated scf accuracy    <       0.00756374 Ry

     total magnetization       =    -0.00    -0.00     6.02 Bohr mag/cell
     absolute magnetization    =     7.10 Bohr mag/cell
[tb_dev] Currently allocated     0.00E+00 Mbytes, locked:    0 /   0
[tb_pin] Currently allocated     0.00E+00 Mbytes, locked:    0 /   0

     iteration #  8     ecut=    30.00 Ry     beta= 0.30
     Davidson diagonalization with overlap

---- Real-time Memory Report at c_bands before calling an iterative solver
          1080 MiB given to the printing process from OS
           717 MiB allocation reported by mallinfo(arena+hblkhd)
        239538 MiB available memory on the node where the printing process lives
     GPU memory used/free/total (MiB): 1742 / 38698 / 40440
------------------
     ethr =  8.15E-06,  avg # of iterations =  3.3

     negative rho (up, down):  0.000E+00 2.897E-03

     total cpu time spent up to now is        4.1 secs

     total energy              =    -506.80463218 Ry
     estimated scf accuracy    <       0.00031175 Ry

     total magnetization       =    -0.00     0.00     6.02 Bohr mag/cell
     absolute magnetization    =     7.07 Bohr mag/cell
[tb_dev] Currently allocated     0.00E+00 Mbytes, locked:    0 /   0
[tb_pin] Currently allocated     0.00E+00 Mbytes, locked:    0 /   0

     iteration #  9     ecut=    30.00 Ry     beta= 0.30
     Davidson diagonalization with overlap

---- Real-time Memory Report at c_bands before calling an iterative solver
          1099 MiB given to the printing process from OS
           731 MiB allocation reported by mallinfo(arena+hblkhd)
        239520 MiB available memory on the node where the printing process lives
     GPU memory used/free/total (MiB): 1742 / 38698 / 40440
------------------
     ethr =  4.45E-07,  avg # of iterations =  4.7

     negative rho (up, down):  0.000E+00 2.922E-03

     total cpu time spent up to now is        4.3 secs

     total energy              =    -506.80477567 Ry
     estimated scf accuracy    <       0.00001431 Ry

     total magnetization       =     0.00     0.00     6.01 Bohr mag/cell
     absolute magnetization    =     7.04 Bohr mag/cell
[tb_dev] Currently allocated     0.00E+00 Mbytes, locked:    0 /   0
[tb_pin] Currently allocated     0.00E+00 Mbytes, locked:    0 /   0

     iteration # 10     ecut=    30.00 Ry     beta= 0.30
     Davidson diagonalization with overlap

---- Real-time Memory Report at c_bands before calling an iterative solver
          1127 MiB given to the printing process from OS
           751 MiB allocation reported by mallinfo(arena+hblkhd)
        239492 MiB available memory on the node where the printing process lives
     GPU memory used/free/total (MiB): 1742 / 38698 / 40440
------------------
     ethr =  2.04E-08,  avg # of iterations =  4.3

     negative rho (up, down):  0.000E+00 2.996E-03

     total cpu time spent up to now is        4.6 secs

     total energy              =    -506.80482434 Ry
     estimated scf accuracy    <       0.00000612 Ry

     total magnetization       =    -0.00    -0.00     6.01 Bohr mag/cell
     absolute magnetization    =     7.03 Bohr mag/cell
[tb_dev] Currently allocated     0.00E+00 Mbytes, locked:    0 /   0
[tb_pin] Currently allocated     0.00E+00 Mbytes, locked:    0 /   0

     iteration # 11     ecut=    30.00 Ry     beta= 0.30
     Davidson diagonalization with overlap

---- Real-time Memory Report at c_bands before calling an iterative solver
          1128 MiB given to the printing process from OS
           751 MiB allocation reported by mallinfo(arena+hblkhd)
        239492 MiB available memory on the node where the printing process lives
     GPU memory used/free/total (MiB): 1742 / 38698 / 40440
------------------
     ethr =  8.74E-09,  avg # of iterations =  5.0

     negative rho (up, down):  0.000E+00 2.996E-03

     total cpu time spent up to now is        4.8 secs

     total energy              =    -506.80482937 Ry
     estimated scf accuracy    <       0.00000511 Ry

     total magnetization       =     0.00     0.00     6.01 Bohr mag/cell
     absolute magnetization    =     7.01 Bohr mag/cell
[tb_dev] Currently allocated     0.00E+00 Mbytes, locked:    0 /   0
[tb_pin] Currently allocated     0.00E+00 Mbytes, locked:    0 /   0

     iteration # 12     ecut=    30.00 Ry     beta= 0.30
     Davidson diagonalization with overlap

---- Real-time Memory Report at c_bands before calling an iterative solver
          1128 MiB given to the printing process from OS
           751 MiB allocation reported by mallinfo(arena+hblkhd)
        239490 MiB available memory on the node where the printing process lives
     GPU memory used/free/total (MiB): 1742 / 38698 / 40440
------------------
     ethr =  7.31E-09,  avg # of iterations =  4.3

     negative rho (up, down):  0.000E+00 2.996E-03

     total cpu time spent up to now is        5.0 secs

     total energy              =    -506.80483341 Ry
     estimated scf accuracy    <       0.00000014 Ry

     total magnetization       =    -0.00     0.00     6.01 Bohr mag/cell
     absolute magnetization    =     7.01 Bohr mag/cell
[tb_dev] Currently allocated     0.00E+00 Mbytes, locked:    0 /   0
[tb_pin] Currently allocated     0.00E+00 Mbytes, locked:    0 /   0

     iteration # 13     ecut=    30.00 Ry     beta= 0.30
     Davidson diagonalization with overlap

---- Real-time Memory Report at c_bands before calling an iterative solver
          1128 MiB given to the printing process from OS
           751 MiB allocation reported by mallinfo(arena+hblkhd)
        239490 MiB available memory on the node where the printing process lives
     GPU memory used/free/total (MiB): 1742 / 38698 / 40440
------------------
     ethr =  1.99E-10,  avg # of iterations =  5.3

     negative rho (up, down):  0.000E+00 2.971E-03

     total cpu time spent up to now is        5.3 secs

     total energy              =    -506.80483453 Ry
     estimated scf accuracy    <       0.00000004 Ry

     total magnetization       =    -0.00    -0.00     6.01 Bohr mag/cell
     absolute magnetization    =     7.00 Bohr mag/cell
[tb_dev] Currently allocated     0.00E+00 Mbytes, locked:    0 /   0
[tb_pin] Currently allocated     0.00E+00 Mbytes, locked:    0 /   0

     iteration # 14     ecut=    30.00 Ry     beta= 0.30
     Davidson diagonalization with overlap

---- Real-time Memory Report at c_bands before calling an iterative solver
          1128 MiB given to the printing process from OS
           751 MiB allocation reported by mallinfo(arena+hblkhd)
        239492 MiB available memory on the node where the printing process lives
     GPU memory used/free/total (MiB): 1752 / 38688 / 40440
------------------
     ethr =  5.07E-11,  avg # of iterations =  5.3

     negative rho (up, down):  0.000E+00 2.996E-03

     total cpu time spent up to now is        5.6 secs

     total energy              =    -506.80483452 Ry
     estimated scf accuracy    <          8.3E-09 Ry

     total magnetization       =     0.00     0.00     6.01 Bohr mag/cell
     absolute magnetization    =     7.00 Bohr mag/cell
[tb_dev] Currently allocated     0.00E+00 Mbytes, locked:    0 /   0
[tb_pin] Currently allocated     0.00E+00 Mbytes, locked:    0 /   0

     iteration # 15     ecut=    30.00 Ry     beta= 0.30
     Davidson diagonalization with overlap

---- Real-time Memory Report at c_bands before calling an iterative solver
          1128 MiB given to the printing process from OS
           751 MiB allocation reported by mallinfo(arena+hblkhd)
        239492 MiB available memory on the node where the printing process lives
     GPU memory used/free/total (MiB): 1762 / 38678 / 40440
------------------
     ethr =  1.18E-11,  avg # of iterations =  5.0

     negative rho (up, down):  0.000E+00 2.971E-03

     total cpu time spent up to now is        5.8 secs

     total energy              =    -506.80483418 Ry
     estimated scf accuracy    <          5.7E-09 Ry

     total magnetization       =     0.00     0.00     6.01 Bohr mag/cell
     absolute magnetization    =     7.00 Bohr mag/cell
[tb_dev] Currently allocated     0.00E+00 Mbytes, locked:    0 /   0
[tb_pin] Currently allocated     0.00E+00 Mbytes, locked:    0 /   0

     iteration # 16     ecut=    30.00 Ry     beta= 0.30
     Davidson diagonalization with overlap

---- Real-time Memory Report at c_bands before calling an iterative solver
          1128 MiB given to the printing process from OS
           751 MiB allocation reported by mallinfo(arena+hblkhd)
        239492 MiB available memory on the node where the printing process lives
     GPU memory used/free/total (MiB): 1774 / 38666 / 40440
------------------
     ethr =  8.15E-12,  avg # of iterations =  5.7

     negative rho (up, down):  0.000E+00 2.996E-03

     total cpu time spent up to now is        6.1 secs

     total energy              =    -506.80483393 Ry
     estimated scf accuracy    <          5.3E-09 Ry

     total magnetization       =    -0.00     0.00     6.01 Bohr mag/cell
     absolute magnetization    =     7.00 Bohr mag/cell
[tb_dev] Currently allocated     0.00E+00 Mbytes, locked:    0 /   0
[tb_pin] Currently allocated     0.00E+00 Mbytes, locked:    0 /   0

     iteration # 17     ecut=    30.00 Ry     beta= 0.30
     Davidson diagonalization with overlap

---- Real-time Memory Report at c_bands before calling an iterative solver
          1128 MiB given to the printing process from OS
           751 MiB allocation reported by mallinfo(arena+hblkhd)
        239492 MiB available memory on the node where the printing process lives
     GPU memory used/free/total (MiB): 1774 / 38666 / 40440
------------------
     ethr =  7.55E-12,  avg # of iterations =  5.3

     negative rho (up, down):  0.000E+00 2.996E-03

     total cpu time spent up to now is        6.3 secs

     total energy              =    -506.80483410 Ry
     estimated scf accuracy    <          5.5E-09 Ry

     total magnetization       =    -0.00     0.00     6.01 Bohr mag/cell
     absolute magnetization    =     7.00 Bohr mag/cell
[tb_dev] Currently allocated     0.00E+00 Mbytes, locked:    0 /   0
[tb_pin] Currently allocated     0.00E+00 Mbytes, locked:    0 /   0

     iteration # 18     ecut=    30.00 Ry     beta= 0.30
     Davidson diagonalization with overlap

---- Real-time Memory Report at c_bands before calling an iterative solver
          1128 MiB given to the printing process from OS
           751 MiB allocation reported by mallinfo(arena+hblkhd)
        239494 MiB available memory on the node where the printing process lives
     GPU memory used/free/total (MiB): 1774 / 38666 / 40440
------------------
     ethr =  7.55E-12,  avg # of iterations =  3.3

     negative rho (up, down):  0.000E+00 2.996E-03

     total cpu time spent up to now is        6.6 secs

     total energy              =    -506.80483372 Ry
     estimated scf accuracy    <          5.3E-09 Ry

     total magnetization       =     0.00     0.00     6.01 Bohr mag/cell
     absolute magnetization    =     7.00 Bohr mag/cell
[tb_dev] Currently allocated     0.00E+00 Mbytes, locked:    0 /   0
[tb_pin] Currently allocated     0.00E+00 Mbytes, locked:    0 /   0

     iteration # 19     ecut=    30.00 Ry     beta= 0.30
     Davidson diagonalization with overlap

---- Real-time Memory Report at c_bands before calling an iterative solver
          1128 MiB given to the printing process from OS
           751 MiB allocation reported by mallinfo(arena+hblkhd)
        239494 MiB available memory on the node where the printing process lives
     GPU memory used/free/total (MiB): 1774 / 38666 / 40440
------------------
     ethr =  7.55E-12,  avg # of iterations = 10.0

     negative rho (up, down):  0.000E+00 2.996E-03

     total cpu time spent up to now is        6.9 secs

     total energy              =    -506.80483394 Ry
     estimated scf accuracy    <          5.0E-09 Ry

     total magnetization       =    -0.00     0.00     6.01 Bohr mag/cell
     absolute magnetization    =     7.00 Bohr mag/cell
[tb_dev] Currently allocated     0.00E+00 Mbytes, locked:    0 /   0
[tb_pin] Currently allocated     0.00E+00 Mbytes, locked:    0 /   0

     iteration # 20     ecut=    30.00 Ry     beta= 0.30
     Davidson diagonalization with overlap

---- Real-time Memory Report at c_bands before calling an iterative solver
          1128 MiB given to the printing process from OS
           751 MiB allocation reported by mallinfo(arena+hblkhd)
        239495 MiB available memory on the node where the printing process lives
     GPU memory used/free/total (MiB): 1774 / 38666 / 40440
------------------
     ethr =  7.13E-12,  avg # of iterations =  8.7

     negative rho (up, down):  0.000E+00 2.996E-03

     total cpu time spent up to now is        7.2 secs

     total energy              =    -506.80483398 Ry
     estimated scf accuracy    <          5.6E-09 Ry

     total magnetization       =     0.00     0.00     6.01 Bohr mag/cell
     absolute magnetization    =     7.00 Bohr mag/cell
[tb_dev] Currently allocated     0.00E+00 Mbytes, locked:    0 /   0
[tb_pin] Currently allocated     0.00E+00 Mbytes, locked:    0 /   0

     iteration # 21     ecut=    30.00 Ry     beta= 0.30
     Davidson diagonalization with overlap

---- Real-time Memory Report at c_bands before calling an iterative solver
          1128 MiB given to the printing process from OS
           751 MiB allocation reported by mallinfo(arena+hblkhd)
        239496 MiB available memory on the node where the printing process lives
     GPU memory used/free/total (MiB): 1774 / 38666 / 40440
------------------
     ethr =  7.13E-12,  avg # of iterations =  5.0

     negative rho (up, down):  0.000E+00 2.996E-03

     total cpu time spent up to now is        7.4 secs

     total energy              =    -506.80483384 Ry
     estimated scf accuracy    <          4.9E-09 Ry

     total magnetization       =     0.00    -0.00     6.01 Bohr mag/cell
     absolute magnetization    =     7.00 Bohr mag/cell
[tb_dev] Currently allocated     0.00E+00 Mbytes, locked:    0 /   0
[tb_pin] Currently allocated     0.00E+00 Mbytes, locked:    0 /   0

     iteration # 22     ecut=    30.00 Ry     beta= 0.30
     Davidson diagonalization with overlap

---- Real-time Memory Report at c_bands before calling an iterative solver
          1128 MiB given to the printing process from OS
           751 MiB allocation reported by mallinfo(arena+hblkhd)
        239495 MiB available memory on the node where the printing process lives
     GPU memory used/free/total (MiB): 1774 / 38666 / 40440
------------------
     ethr =  7.02E-12,  avg # of iterations =  2.0

     negative rho (up, down):  0.000E+00 2.996E-03

     total cpu time spent up to now is        7.6 secs

     total energy              =    -506.80483402 Ry
     estimated scf accuracy    <          4.9E-09 Ry

     total magnetization       =     0.00    -0.00     6.01 Bohr mag/cell
     absolute magnetization    =     7.00 Bohr mag/cell
[tb_dev] Currently allocated     0.00E+00 Mbytes, locked:    0 /   0
[tb_pin] Currently allocated     0.00E+00 Mbytes, locked:    0 /   0

     iteration # 23     ecut=    30.00 Ry     beta= 0.30
     Davidson diagonalization with overlap

---- Real-time Memory Report at c_bands before calling an iterative solver
          1128 MiB given to the printing process from OS
           751 MiB allocation reported by mallinfo(arena+hblkhd)
        239495 MiB available memory on the node where the printing process lives
     GPU memory used/free/total (MiB): 1774 / 38666 / 40440
------------------
     ethr =  7.00E-12,  avg # of iterations =  4.0

     negative rho (up, down):  0.000E+00 2.996E-03

     total cpu time spent up to now is        7.9 secs

     total energy              =    -506.80483400 Ry
     estimated scf accuracy    <          5.1E-09 Ry

     total magnetization       =    -0.00     0.00     6.01 Bohr mag/cell
     absolute magnetization    =     7.00 Bohr mag/cell
[tb_dev] Currently allocated     0.00E+00 Mbytes, locked:    0 /   0
[tb_pin] Currently allocated     0.00E+00 Mbytes, locked:    0 /   0

     iteration # 24     ecut=    30.00 Ry     beta= 0.30
     Davidson diagonalization with overlap

---- Real-time Memory Report at c_bands before calling an iterative solver
          1128 MiB given to the printing process from OS
           751 MiB allocation reported by mallinfo(arena+hblkhd)
        239494 MiB available memory on the node where the printing process lives
     GPU memory used/free/total (MiB): 1774 / 38666 / 40440
------------------
     ethr =  7.00E-12,  avg # of iterations =  2.3

     negative rho (up, down):  0.000E+00 2.996E-03

     total cpu time spent up to now is        8.1 secs

     total energy              =    -506.80483391 Ry
     estimated scf accuracy    <          5.0E-09 Ry

     total magnetization       =    -0.00    -0.00     6.01 Bohr mag/cell
     absolute magnetization    =     7.00 Bohr mag/cell
[tb_dev] Currently allocated     0.00E+00 Mbytes, locked:    0 /   0
[tb_pin] Currently allocated     0.00E+00 Mbytes, locked:    0 /   0

     iteration # 25     ecut=    30.00 Ry     beta= 0.30
     Davidson diagonalization with overlap

---- Real-time Memory Report at c_bands before calling an iterative solver
          1128 MiB given to the printing process from OS
           751 MiB allocation reported by mallinfo(arena+hblkhd)
        239494 MiB available memory on the node where the printing process lives
     GPU memory used/free/total (MiB): 1774 / 38666 / 40440
------------------
     ethr =  7.00E-12,  avg # of iterations =  2.0

     negative rho (up, down):  0.000E+00 2.996E-03

     total cpu time spent up to now is        8.3 secs

     total energy              =    -506.80483397 Ry
     estimated scf accuracy    <          5.0E-09 Ry

     total magnetization       =     0.00     0.00     6.01 Bohr mag/cell
     absolute magnetization    =     7.00 Bohr mag/cell
[tb_dev] Currently allocated     0.00E+00 Mbytes, locked:    0 /   0
[tb_pin] Currently allocated     0.00E+00 Mbytes, locked:    0 /   0

     iteration # 26     ecut=    30.00 Ry     beta= 0.30
     Davidson diagonalization with overlap

---- Real-time Memory Report at c_bands before calling an iterative solver
          1128 MiB given to the printing process from OS
           751 MiB allocation reported by mallinfo(arena+hblkhd)
        239495 MiB available memory on the node where the printing process lives
     GPU memory used/free/total (MiB): 1774 / 38666 / 40440
------------------
     ethr =  7.00E-12,  avg # of iterations =  8.7

     negative rho (up, down):  0.000E+00 2.996E-03

     total cpu time spent up to now is        8.6 secs

     total energy              =    -506.80483364 Ry
     estimated scf accuracy    <          4.7E-09 Ry

     total magnetization       =    -0.00     0.00     6.01 Bohr mag/cell
     absolute magnetization    =     7.00 Bohr mag/cell
[tb_dev] Currently allocated     0.00E+00 Mbytes, locked:    0 /   0
[tb_pin] Currently allocated     0.00E+00 Mbytes, locked:    0 /   0

     iteration # 27     ecut=    30.00 Ry     beta= 0.30
     Davidson diagonalization with overlap

---- Real-time Memory Report at c_bands before calling an iterative solver
          1128 MiB given to the printing process from OS
           751 MiB allocation reported by mallinfo(arena+hblkhd)
        239496 MiB available memory on the node where the printing process lives
     GPU memory used/free/total (MiB): 1774 / 38666 / 40440
------------------
     ethr =  6.71E-12,  avg # of iterations =  5.7

     negative rho (up, down):  0.000E+00 2.971E-03

     total cpu time spent up to now is        8.8 secs

     total energy              =    -506.80483382 Ry
     estimated scf accuracy    <          5.2E-09 Ry

     total magnetization       =    -0.00    -0.00     6.01 Bohr mag/cell
     absolute magnetization    =     7.00 Bohr mag/cell
[tb_dev] Currently allocated     0.00E+00 Mbytes, locked:    0 /   0
[tb_pin] Currently allocated     0.00E+00 Mbytes, locked:    0 /   0

     iteration # 28     ecut=    30.00 Ry     beta= 0.30
     Davidson diagonalization with overlap

---- Real-time Memory Report at c_bands before calling an iterative solver
          1128 MiB given to the printing process from OS
           751 MiB allocation reported by mallinfo(arena+hblkhd)
        239493 MiB available memory on the node where the printing process lives
     GPU memory used/free/total (MiB): 1774 / 38666 / 40440
------------------
     ethr =  6.71E-12,  avg # of iterations = 12.0

     negative rho (up, down):  0.000E+00 2.971E-03

     total cpu time spent up to now is        9.2 secs

     total energy              =    -506.80483400 Ry
     estimated scf accuracy    <          5.6E-09 Ry

     total magnetization       =    -0.00     0.00     6.01 Bohr mag/cell
     absolute magnetization    =     7.00 Bohr mag/cell
[tb_dev] Currently allocated     0.00E+00 Mbytes, locked:    0 /   0
[tb_pin] Currently allocated     0.00E+00 Mbytes, locked:    0 /   0

     iteration # 29     ecut=    30.00 Ry     beta= 0.30
     Davidson diagonalization with overlap

---- Real-time Memory Report at c_bands before calling an iterative solver
          1135 MiB given to the printing process from OS
           758 MiB allocation reported by mallinfo(arena+hblkhd)
        239487 MiB available memory on the node where the printing process lives
     GPU memory used/free/total (MiB): 1774 / 38666 / 40440
------------------
     ethr =  6.71E-12,  avg # of iterations =  5.3

     negative rho (up, down):  0.000E+00 2.971E-03

     total cpu time spent up to now is        9.4 secs

     total energy              =    -506.80483223 Ry
     estimated scf accuracy    <          5.5E-09 Ry

     total magnetization       =     0.00     0.00     6.01 Bohr mag/cell
     absolute magnetization    =     7.00 Bohr mag/cell
[tb_dev] Currently allocated     0.00E+00 Mbytes, locked:    0 /   0
[tb_pin] Currently allocated     0.00E+00 Mbytes, locked:    0 /   0

     iteration # 30     ecut=    30.00 Ry     beta= 0.30
     Davidson diagonalization with overlap

---- Real-time Memory Report at c_bands before calling an iterative solver
          1135 MiB given to the printing process from OS
           758 MiB allocation reported by mallinfo(arena+hblkhd)
        239486 MiB available memory on the node where the printing process lives
     GPU memory used/free/total (MiB): 1774 / 38666 / 40440
------------------
     ethr =  6.71E-12,  avg # of iterations = 13.7

     negative rho (up, down):  0.000E+00 2.971E-03

     total cpu time spent up to now is        9.8 secs

     total energy              =    -506.80483399 Ry
     estimated scf accuracy    <       0.00000001 Ry

     total magnetization       =    -0.00     0.00     6.01 Bohr mag/cell
     absolute magnetization    =     7.00 Bohr mag/cell
[tb_dev] Currently allocated     0.00E+00 Mbytes, locked:    0 /   0
[tb_pin] Currently allocated     0.00E+00 Mbytes, locked:    0 /   0

     iteration # 31     ecut=    30.00 Ry     beta= 0.30
     Davidson diagonalization with overlap

---- Real-time Memory Report at c_bands before calling an iterative solver
          1135 MiB given to the printing process from OS
           758 MiB allocation reported by mallinfo(arena+hblkhd)
        239486 MiB available memory on the node where the printing process lives
     GPU memory used/free/total (MiB): 1774 / 38666 / 40440
------------------
     ethr =  6.71E-12,  avg # of iterations =  7.0

     negative rho (up, down):  0.000E+00 2.971E-03

     total cpu time spent up to now is       10.0 secs

     total energy              =    -506.80483394 Ry
     estimated scf accuracy    <          8.3E-09 Ry

     total magnetization       =     0.00     0.00     6.01 Bohr mag/cell
     absolute magnetization    =     7.00 Bohr mag/cell
[tb_dev] Currently allocated     0.00E+00 Mbytes, locked:    0 /   0
[tb_pin] Currently allocated     0.00E+00 Mbytes, locked:    0 /   0

     iteration # 32     ecut=    30.00 Ry     beta= 0.30
     Davidson diagonalization with overlap

---- Real-time Memory Report at c_bands before calling an iterative solver
          1135 MiB given to the printing process from OS
           758 MiB allocation reported by mallinfo(arena+hblkhd)
        239484 MiB available memory on the node where the printing process lives
     GPU memory used/free/total (MiB): 1774 / 38666 / 40440
------------------
     ethr =  6.71E-12,  avg # of iterations = 10.0

     negative rho (up, down):  0.000E+00 2.971E-03

     total cpu time spent up to now is       10.3 secs

     total energy              =    -506.80483429 Ry
     estimated scf accuracy    <          7.0E-09 Ry

     total magnetization       =    -0.00    -0.00     6.01 Bohr mag/cell
     absolute magnetization    =     7.00 Bohr mag/cell
[tb_dev] Currently allocated     0.00E+00 Mbytes, locked:    0 /   0
[tb_pin] Currently allocated     0.00E+00 Mbytes, locked:    0 /   0

     iteration # 33     ecut=    30.00 Ry     beta= 0.30
     Davidson diagonalization with overlap

---- Real-time Memory Report at c_bands before calling an iterative solver
          1135 MiB given to the printing process from OS
           758 MiB allocation reported by mallinfo(arena+hblkhd)
        239484 MiB available memory on the node where the printing process lives
     GPU memory used/free/total (MiB): 1774 / 38666 / 40440
------------------
     ethr =  6.71E-12,  avg # of iterations = 11.3

     negative rho (up, down):  0.000E+00 2.996E-03

     total cpu time spent up to now is       10.6 secs

     total energy              =    -506.80483368 Ry
     estimated scf accuracy    <          6.3E-09 Ry

     total magnetization       =     0.00    -0.00     6.01 Bohr mag/cell
     absolute magnetization    =     7.00 Bohr mag/cell
[tb_dev] Currently allocated     0.00E+00 Mbytes, locked:    0 /   0
[tb_pin] Currently allocated     0.00E+00 Mbytes, locked:    0 /   0

     iteration # 34     ecut=    30.00 Ry     beta= 0.30
     Davidson diagonalization with overlap

---- Real-time Memory Report at c_bands before calling an iterative solver
          1135 MiB given to the printing process from OS
           758 MiB allocation reported by mallinfo(arena+hblkhd)
        239484 MiB available memory on the node where the printing process lives
     GPU memory used/free/total (MiB): 1774 / 38666 / 40440
------------------
     ethr =  6.71E-12,  avg # of iterations = 13.0

     negative rho (up, down):  0.000E+00 2.996E-03

     total cpu time spent up to now is       11.0 secs

     total energy              =    -506.80480325 Ry
     estimated scf accuracy    <       0.00000002 Ry

     total magnetization       =    -0.00     0.00     6.01 Bohr mag/cell
     absolute magnetization    =     7.00 Bohr mag/cell
[tb_dev] Currently allocated     0.00E+00 Mbytes, locked:    0 /   0
[tb_pin] Currently allocated     0.00E+00 Mbytes, locked:    0 /   0

     iteration # 35     ecut=    30.00 Ry     beta= 0.30
     Davidson diagonalization with overlap

---- Real-time Memory Report at c_bands before calling an iterative solver
          1135 MiB given to the printing process from OS
           758 MiB allocation reported by mallinfo(arena+hblkhd)
        239484 MiB available memory on the node where the printing process lives
     GPU memory used/free/total (MiB): 1774 / 38666 / 40440
------------------
     ethr =  6.71E-12,  avg # of iterations = 16.0

     negative rho (up, down):  0.000E+00 2.996E-03

     total cpu time spent up to now is       11.4 secs

     total energy              =    -506.80482579 Ry
     estimated scf accuracy    <       0.00000155 Ry

     total magnetization       =    -0.00     0.00     6.01 Bohr mag/cell
     absolute magnetization    =     7.00 Bohr mag/cell
[tb_dev] Currently allocated     0.00E+00 Mbytes, locked:    0 /   0
[tb_pin] Currently allocated     0.00E+00 Mbytes, locked:    0 /   0

     iteration # 36     ecut=    30.00 Ry     beta= 0.30
     Davidson diagonalization with overlap

---- Real-time Memory Report at c_bands before calling an iterative solver
          1135 MiB given to the printing process from OS
           758 MiB allocation reported by mallinfo(arena+hblkhd)
        239484 MiB available memory on the node where the printing process lives
     GPU memory used/free/total (MiB): 1774 / 38666 / 40440
------------------
     ethr =  6.71E-12,  avg # of iterations =  6.0

     negative rho (up, down):  0.000E+00 2.996E-03

     total cpu time spent up to now is       11.7 secs

     total energy              =    -506.80481208 Ry
     estimated scf accuracy    <       0.00000144 Ry

     total magnetization       =    -0.00     0.00     6.01 Bohr mag/cell
     absolute magnetization    =     7.00 Bohr mag/cell
[tb_dev] Currently allocated     0.00E+00 Mbytes, locked:    0 /   0
[tb_pin] Currently allocated     0.00E+00 Mbytes, locked:    0 /   0

     iteration # 37     ecut=    30.00 Ry     beta= 0.30
     Davidson diagonalization with overlap

---- Real-time Memory Report at c_bands before calling an iterative solver
          1135 MiB given to the printing process from OS
           758 MiB allocation reported by mallinfo(arena+hblkhd)
        239485 MiB available memory on the node where the printing process lives
     GPU memory used/free/total (MiB): 1784 / 38656 / 40440
------------------
     ethr =  6.71E-12,  avg # of iterations = 16.0

     negative rho (up, down):  0.000E+00 2.996E-03

     total cpu time spent up to now is       12.1 secs

     total energy              =    -506.80483478 Ry
     estimated scf accuracy    <          9.6E-09 Ry

     total magnetization       =    -0.00     0.00     6.01 Bohr mag/cell
     absolute magnetization    =     7.00 Bohr mag/cell
[tb_dev] Currently allocated     0.00E+00 Mbytes, locked:    0 /   0
[tb_pin] Currently allocated     0.00E+00 Mbytes, locked:    0 /   0

     iteration # 38     ecut=    30.00 Ry     beta= 0.30
     Davidson diagonalization with overlap

---- Real-time Memory Report at c_bands before calling an iterative solver
          1135 MiB given to the printing process from OS
           758 MiB allocation reported by mallinfo(arena+hblkhd)
        239484 MiB available memory on the node where the printing process lives
     GPU memory used/free/total (MiB): 1784 / 38656 / 40440
------------------
     ethr =  6.71E-12,  avg # of iterations =  5.7

     negative rho (up, down):  0.000E+00 2.996E-03

     total cpu time spent up to now is       12.3 secs

     total energy              =    -506.80483404 Ry
     estimated scf accuracy    <          8.0E-09 Ry

     total magnetization       =     0.00    -0.00     6.01 Bohr mag/cell
     absolute magnetization    =     7.00 Bohr mag/cell
[tb_dev] Currently allocated     0.00E+00 Mbytes, locked:    0 /   0
[tb_pin] Currently allocated     0.00E+00 Mbytes, locked:    0 /   0

     iteration # 39     ecut=    30.00 Ry     beta= 0.30
     Davidson diagonalization with overlap

---- Real-time Memory Report at c_bands before calling an iterative solver
          1135 MiB given to the printing process from OS
           758 MiB allocation reported by mallinfo(arena+hblkhd)
        239485 MiB available memory on the node where the printing process lives
     GPU memory used/free/total (MiB): 1784 / 38656 / 40440
------------------
     ethr =  6.71E-12,  avg # of iterations =  8.0

     negative rho (up, down):  0.000E+00 2.996E-03

     total cpu time spent up to now is       12.6 secs

     total energy              =    -506.80483240 Ry
     estimated scf accuracy    <          6.3E-09 Ry

     total magnetization       =    -0.00     0.00     6.01 Bohr mag/cell
     absolute magnetization    =     7.00 Bohr mag/cell
[tb_dev] Currently allocated     0.00E+00 Mbytes, locked:    0 /   0
[tb_pin] Currently allocated     0.00E+00 Mbytes, locked:    0 /   0

     iteration # 40     ecut=    30.00 Ry     beta= 0.30
     Davidson diagonalization with overlap

---- Real-time Memory Report at c_bands before calling an iterative solver
          1135 MiB given to the printing process from OS
           758 MiB allocation reported by mallinfo(arena+hblkhd)
        239484 MiB available memory on the node where the printing process lives
     GPU memory used/free/total (MiB): 1784 / 38656 / 40440
------------------
     ethr =  6.71E-12,  avg # of iterations = 13.3

     negative rho (up, down):  0.000E+00 2.996E-03

     total cpu time spent up to now is       13.0 secs

     total energy              =    -506.80483312 Ry
     estimated scf accuracy    <          3.9E-09 Ry

     total magnetization       =     0.00     0.00     6.01 Bohr mag/cell
     absolute magnetization    =     7.00 Bohr mag/cell
[tb_dev] Currently allocated     0.00E+00 Mbytes, locked:    0 /   0
[tb_pin] Currently allocated     0.00E+00 Mbytes, locked:    0 /   0

     iteration # 41     ecut=    30.00 Ry     beta= 0.30
     Davidson diagonalization with overlap

---- Real-time Memory Report at c_bands before calling an iterative solver
          1135 MiB given to the printing process from OS
           758 MiB allocation reported by mallinfo(arena+hblkhd)
        239484 MiB available memory on the node where the printing process lives
     GPU memory used/free/total (MiB): 1784 / 38656 / 40440
------------------
     ethr =  5.62E-12,  avg # of iterations =  7.3

     negative rho (up, down):  0.000E+00 2.996E-03

     total cpu time spent up to now is       13.3 secs

     total energy              =    -506.80483330 Ry
     estimated scf accuracy    <          4.9E-09 Ry

     total magnetization       =     0.00     0.00     6.01 Bohr mag/cell
     absolute magnetization    =     7.00 Bohr mag/cell
[tb_dev] Currently allocated     0.00E+00 Mbytes, locked:    0 /   0
[tb_pin] Currently allocated     0.00E+00 Mbytes, locked:    0 /   0

     iteration # 42     ecut=    30.00 Ry     beta= 0.30
     Davidson diagonalization with overlap

---- Real-time Memory Report at c_bands before calling an iterative solver
          1135 MiB given to the printing process from OS
           758 MiB allocation reported by mallinfo(arena+hblkhd)
        239485 MiB available memory on the node where the printing process lives
     GPU memory used/free/total (MiB): 1808 / 38632 / 40440
------------------
     ethr =  5.62E-12,  avg # of iterations =  8.7

     negative rho (up, down):  0.000E+00 2.996E-03

     total cpu time spent up to now is       13.6 secs

     total energy              =    -506.80483335 Ry
     estimated scf accuracy    <          3.9E-09 Ry

     total magnetization       =    -0.00    -0.00     6.01 Bohr mag/cell
     absolute magnetization    =     7.00 Bohr mag/cell
[tb_dev] Currently allocated     0.00E+00 Mbytes, locked:    0 /   0
[tb_pin] Currently allocated     0.00E+00 Mbytes, locked:    0 /   0

     iteration # 43     ecut=    30.00 Ry     beta= 0.30
     Davidson diagonalization with overlap

---- Real-time Memory Report at c_bands before calling an iterative solver
          1135 MiB given to the printing process from OS
           758 MiB allocation reported by mallinfo(arena+hblkhd)
        239483 MiB available memory on the node where the printing process lives
     GPU memory used/free/total (MiB): 1808 / 38632 / 40440
------------------
     ethr =  5.56E-12,  avg # of iterations =  7.3

     negative rho (up, down):  0.000E+00 2.996E-03

     total cpu time spent up to now is       13.9 secs

     total energy              =    -506.80483328 Ry
     estimated scf accuracy    <          4.7E-09 Ry

     total magnetization       =     0.00     0.00     6.01 Bohr mag/cell
     absolute magnetization    =     7.00 Bohr mag/cell
[tb_dev] Currently allocated     0.00E+00 Mbytes, locked:    0 /   0
[tb_pin] Currently allocated     0.00E+00 Mbytes, locked:    0 /   0

     iteration # 44     ecut=    30.00 Ry     beta= 0.30
     Davidson diagonalization with overlap

---- Real-time Memory Report at c_bands before calling an iterative solver
          1135 MiB given to the printing process from OS
           758 MiB allocation reported by mallinfo(arena+hblkhd)
        239484 MiB available memory on the node where the printing process lives
     GPU memory used/free/total (MiB): 1808 / 38632 / 40440
------------------
     ethr =  5.56E-12,  avg # of iterations =  5.7

     negative rho (up, down):  0.000E+00 2.996E-03

     total cpu time spent up to now is       14.1 secs

     total energy              =    -506.80483337 Ry
     estimated scf accuracy    <          4.2E-09 Ry

     total magnetization       =     0.00    -0.00     6.01 Bohr mag/cell
     absolute magnetization    =     7.00 Bohr mag/cell
[tb_dev] Currently allocated     0.00E+00 Mbytes, locked:    0 /   0
[tb_pin] Currently allocated     0.00E+00 Mbytes, locked:    0 /   0

     iteration # 45     ecut=    30.00 Ry     beta= 0.30
     Davidson diagonalization with overlap

---- Real-time Memory Report at c_bands before calling an iterative solver
          1135 MiB given to the printing process from OS
           758 MiB allocation reported by mallinfo(arena+hblkhd)
        239484 MiB available memory on the node where the printing process lives
     GPU memory used/free/total (MiB): 1808 / 38632 / 40440
------------------
     ethr =  5.56E-12,  avg # of iterations =  6.0

     negative rho (up, down):  0.000E+00 2.996E-03

     total cpu time spent up to now is       14.4 secs

     total energy              =    -506.80483016 Ry
     estimated scf accuracy    <          4.5E-09 Ry

     total magnetization       =     0.00     0.00     6.01 Bohr mag/cell
     absolute magnetization    =     7.00 Bohr mag/cell
[tb_dev] Currently allocated     0.00E+00 Mbytes, locked:    0 /   0
[tb_pin] Currently allocated     0.00E+00 Mbytes, locked:    0 /   0

     iteration # 46     ecut=    30.00 Ry     beta= 0.30
     Davidson diagonalization with overlap

---- Real-time Memory Report at c_bands before calling an iterative solver
          1135 MiB given to the printing process from OS
           758 MiB allocation reported by mallinfo(arena+hblkhd)
        239484 MiB available memory on the node where the printing process lives
     GPU memory used/free/total (MiB): 1808 / 38632 / 40440
------------------
     ethr =  5.56E-12,  avg # of iterations = 14.3

     negative rho (up, down):  0.000E+00 2.996E-03

     total cpu time spent up to now is       14.8 secs

     total energy              =    -506.80480300 Ry
     estimated scf accuracy    <       0.00000001 Ry

     total magnetization       =    -0.00     0.00     6.01 Bohr mag/cell
     absolute magnetization    =     7.00 Bohr mag/cell
[tb_dev] Currently allocated     0.00E+00 Mbytes, locked:    0 /   0
[tb_pin] Currently allocated     0.00E+00 Mbytes, locked:    0 /   0

     iteration # 47     ecut=    30.00 Ry     beta= 0.30
     Davidson diagonalization with overlap

---- Real-time Memory Report at c_bands before calling an iterative solver
          1135 MiB given to the printing process from OS
           758 MiB allocation reported by mallinfo(arena+hblkhd)
        239484 MiB available memory on the node where the printing process lives
     GPU memory used/free/total (MiB): 1808 / 38632 / 40440
------------------
     ethr =  5.56E-12,  avg # of iterations = 16.0

     negative rho (up, down):  0.000E+00 2.996E-03

     total cpu time spent up to now is       15.2 secs

     total energy              =    -506.80481269 Ry
     estimated scf accuracy    <       0.00000167 Ry

     total magnetization       =    -0.00    -0.00     6.01 Bohr mag/cell
     absolute magnetization    =     7.00 Bohr mag/cell
[tb_dev] Currently allocated     0.00E+00 Mbytes, locked:    0 /   0
[tb_pin] Currently allocated     0.00E+00 Mbytes, locked:    0 /   0

     iteration # 48     ecut=    30.00 Ry     beta= 0.30
     Davidson diagonalization with overlap

---- Real-time Memory Report at c_bands before calling an iterative solver
          1135 MiB given to the printing process from OS
           758 MiB allocation reported by mallinfo(arena+hblkhd)
        239483 MiB available memory on the node where the printing process lives
     GPU memory used/free/total (MiB): 1808 / 38632 / 40440
------------------
     ethr =  5.56E-12,  avg # of iterations = 15.7

     negative rho (up, down):  0.000E+00 2.996E-03

     total cpu time spent up to now is       15.6 secs

     total energy              =    -506.80483441 Ry
     estimated scf accuracy    <          6.3E-09 Ry

     total magnetization       =    -0.00     0.00     6.01 Bohr mag/cell
     absolute magnetization    =     7.00 Bohr mag/cell
[tb_dev] Currently allocated     0.00E+00 Mbytes, locked:    0 /   0
[tb_pin] Currently allocated     0.00E+00 Mbytes, locked:    0 /   0

     iteration # 49     ecut=    30.00 Ry     beta= 0.30
     Davidson diagonalization with overlap

---- Real-time Memory Report at c_bands before calling an iterative solver
          1135 MiB given to the printing process from OS
           758 MiB allocation reported by mallinfo(arena+hblkhd)
        239483 MiB available memory on the node where the printing process lives
     GPU memory used/free/total (MiB): 1808 / 38632 / 40440
------------------
     ethr =  5.56E-12,  avg # of iterations = 10.0

     negative rho (up, down):  0.000E+00 2.996E-03

     total cpu time spent up to now is       15.9 secs

     total energy              =    -506.80483287 Ry
     estimated scf accuracy    <          7.9E-09 Ry

     total magnetization       =    -0.00     0.00     6.01 Bohr mag/cell
     absolute magnetization    =     7.00 Bohr mag/cell
[tb_dev] Currently allocated     0.00E+00 Mbytes, locked:    0 /   0
[tb_pin] Currently allocated     0.00E+00 Mbytes, locked:    0 /   0

     iteration # 50     ecut=    30.00 Ry     beta= 0.30
     Davidson diagonalization with overlap

---- Real-time Memory Report at c_bands before calling an iterative solver
          1135 MiB given to the printing process from OS
           758 MiB allocation reported by mallinfo(arena+hblkhd)
        239483 MiB available memory on the node where the printing process lives
     GPU memory used/free/total (MiB): 1808 / 38632 / 40440
------------------
     ethr =  5.56E-12,  avg # of iterations = 13.0

     negative rho (up, down):  0.000E+00 2.996E-03

     total cpu time spent up to now is       16.2 secs

     total energy              =    -506.80483366 Ry
     estimated scf accuracy    <          7.5E-09 Ry

     total magnetization       =     0.00     0.00     6.01 Bohr mag/cell
     absolute magnetization    =     7.00 Bohr mag/cell
[tb_dev] Currently allocated     0.00E+00 Mbytes, locked:    0 /   0
[tb_pin] Currently allocated     0.00E+00 Mbytes, locked:    0 /   0

     iteration # 51     ecut=    30.00 Ry     beta= 0.30
     Davidson diagonalization with overlap

---- Real-time Memory Report at c_bands before calling an iterative solver
          1135 MiB given to the printing process from OS
           758 MiB allocation reported by mallinfo(arena+hblkhd)
        239484 MiB available memory on the node where the printing process lives
     GPU memory used/free/total (MiB): 1808 / 38632 / 40440
------------------
     ethr =  5.56E-12,  avg # of iterations = 11.3

     negative rho (up, down):  0.000E+00 2.996E-03

     total cpu time spent up to now is       16.5 secs

     total energy              =    -506.80483387 Ry
     estimated scf accuracy    <       0.00000001 Ry

     total magnetization       =     0.00     0.00     6.01 Bohr mag/cell
     absolute magnetization    =     7.00 Bohr mag/cell
[tb_dev] Currently allocated     0.00E+00 Mbytes, locked:    0 /   0
[tb_pin] Currently allocated     0.00E+00 Mbytes, locked:    0 /   0

     iteration # 52     ecut=    30.00 Ry     beta= 0.30
     Davidson diagonalization with overlap

---- Real-time Memory Report at c_bands before calling an iterative solver
          1135 MiB given to the printing process from OS
           758 MiB allocation reported by mallinfo(arena+hblkhd)
        239484 MiB available memory on the node where the printing process lives
     GPU memory used/free/total (MiB): 1808 / 38632 / 40440
------------------
     ethr =  5.56E-12,  avg # of iterations =  4.3

     negative rho (up, down):  0.000E+00 2.996E-03

     total cpu time spent up to now is       16.8 secs

     total energy              =    -506.80483273 Ry
     estimated scf accuracy    <       0.00000001 Ry

     total magnetization       =     0.00     0.00     6.01 Bohr mag/cell
     absolute magnetization    =     7.00 Bohr mag/cell
[tb_dev] Currently allocated     0.00E+00 Mbytes, locked:    0 /   0
[tb_pin] Currently allocated     0.00E+00 Mbytes, locked:    0 /   0

     iteration # 53     ecut=    30.00 Ry     beta= 0.30
     Davidson diagonalization with overlap

---- Real-time Memory Report at c_bands before calling an iterative solver
          1135 MiB given to the printing process from OS
           758 MiB allocation reported by mallinfo(arena+hblkhd)
        239484 MiB available memory on the node where the printing process lives
     GPU memory used/free/total (MiB): 1808 / 38632 / 40440
------------------
     ethr =  5.56E-12,  avg # of iterations = 14.0

     negative rho (up, down):  0.000E+00 2.996E-03

     total cpu time spent up to now is       17.1 secs

     total energy              =    -506.80483323 Ry
     estimated scf accuracy    <          5.7E-09 Ry

     total magnetization       =    -0.00     0.00     6.01 Bohr mag/cell
     absolute magnetization    =     7.00 Bohr mag/cell
[tb_dev] Currently allocated     0.00E+00 Mbytes, locked:    0 /   0
[tb_pin] Currently allocated     0.00E+00 Mbytes, locked:    0 /   0

     iteration # 54     ecut=    30.00 Ry     beta= 0.30
     Davidson diagonalization with overlap

---- Real-time Memory Report at c_bands before calling an iterative solver
          1135 MiB given to the printing process from OS
           758 MiB allocation reported by mallinfo(arena+hblkhd)
        239484 MiB available memory on the node where the printing process lives
     GPU memory used/free/total (MiB): 1808 / 38632 / 40440
------------------
     ethr =  5.56E-12,  avg # of iterations = 12.7

     negative rho (up, down):  0.000E+00 2.996E-03

     total cpu time spent up to now is       17.4 secs

     total energy              =    -506.80483356 Ry
     estimated scf accuracy    <          6.6E-09 Ry

     total magnetization       =    -0.00    -0.00     6.01 Bohr mag/cell
     absolute magnetization    =     7.00 Bohr mag/cell
[tb_dev] Currently allocated     0.00E+00 Mbytes, locked:    0 /   0
[tb_pin] Currently allocated     0.00E+00 Mbytes, locked:    0 /   0

     iteration # 55     ecut=    30.00 Ry     beta= 0.30
     Davidson diagonalization with overlap

---- Real-time Memory Report at c_bands before calling an iterative solver
          1135 MiB given to the printing process from OS
           758 MiB allocation reported by mallinfo(arena+hblkhd)
        239484 MiB available memory on the node where the printing process lives
     GPU memory used/free/total (MiB): 1808 / 38632 / 40440
------------------
     ethr =  5.56E-12,  avg # of iterations = 12.0

     negative rho (up, down):  0.000E+00 2.996E-03

     total cpu time spent up to now is       17.8 secs

     total energy              =    -506.80483366 Ry
     estimated scf accuracy    <          5.3E-09 Ry

     total magnetization       =     0.00     0.00     6.01 Bohr mag/cell
     absolute magnetization    =     7.00 Bohr mag/cell
[tb_dev] Currently allocated     0.00E+00 Mbytes, locked:    0 /   0
[tb_pin] Currently allocated     0.00E+00 Mbytes, locked:    0 /   0

     iteration # 56     ecut=    30.00 Ry     beta= 0.30
     Davidson diagonalization with overlap

---- Real-time Memory Report at c_bands before calling an iterative solver
          1135 MiB given to the printing process from OS
           758 MiB allocation reported by mallinfo(arena+hblkhd)
        239484 MiB available memory on the node where the printing process lives
     GPU memory used/free/total (MiB): 1808 / 38632 / 40440
------------------
     ethr =  5.56E-12,  avg # of iterations =  6.3

     negative rho (up, down):  0.000E+00 2.996E-03

     total cpu time spent up to now is       18.0 secs

     total energy              =    -506.80483164 Ry
     estimated scf accuracy    <          4.6E-09 Ry

     total magnetization       =    -0.00     0.00     6.01 Bohr mag/cell
     absolute magnetization    =     7.00 Bohr mag/cell
[tb_dev] Currently allocated     0.00E+00 Mbytes, locked:    0 /   0
[tb_pin] Currently allocated     0.00E+00 Mbytes, locked:    0 /   0

     iteration # 57     ecut=    30.00 Ry     beta= 0.30
     Davidson diagonalization with overlap

---- Real-time Memory Report at c_bands before calling an iterative solver
          1135 MiB given to the printing process from OS
           758 MiB allocation reported by mallinfo(arena+hblkhd)
        239483 MiB available memory on the node where the printing process lives
     GPU memory used/free/total (MiB): 1808 / 38632 / 40440
------------------
     ethr =  5.56E-12,  avg # of iterations = 15.3

     negative rho (up, down):  0.000E+00 2.996E-03

     total cpu time spent up to now is       18.4 secs

     total energy              =    -506.80483302 Ry
     estimated scf accuracy    <       0.00000004 Ry

     total magnetization       =    -0.00    -0.00     6.01 Bohr mag/cell
     absolute magnetization    =     7.01 Bohr mag/cell
[tb_dev] Currently allocated     0.00E+00 Mbytes, locked:    0 /   0
[tb_pin] Currently allocated     0.00E+00 Mbytes, locked:    0 /   0

     iteration # 58     ecut=    30.00 Ry     beta= 0.30
     Davidson diagonalization with overlap

---- Real-time Memory Report at c_bands before calling an iterative solver
          1135 MiB given to the printing process from OS
           758 MiB allocation reported by mallinfo(arena+hblkhd)
        239482 MiB available memory on the node where the printing process lives
     GPU memory used/free/total (MiB): 1808 / 38632 / 40440
------------------
     ethr =  5.56E-12,  avg # of iterations =  7.3

     negative rho (up, down):  0.000E+00 2.996E-03

     total cpu time spent up to now is       18.7 secs

     total energy              =    -506.80483342 Ry
     estimated scf accuracy    <       0.00000002 Ry

     total magnetization       =     0.00    -0.00     6.01 Bohr mag/cell
     absolute magnetization    =     7.01 Bohr mag/cell
[tb_dev] Currently allocated     0.00E+00 Mbytes, locked:    0 /   0
[tb_pin] Currently allocated     0.00E+00 Mbytes, locked:    0 /   0

     iteration # 59     ecut=    30.00 Ry     beta= 0.30
     Davidson diagonalization with overlap

---- Real-time Memory Report at c_bands before calling an iterative solver
          1135 MiB given to the printing process from OS
           758 MiB allocation reported by mallinfo(arena+hblkhd)
        239482 MiB available memory on the node where the printing process lives
     GPU memory used/free/total (MiB): 1808 / 38632 / 40440
------------------
     ethr =  5.56E-12,  avg # of iterations = 13.0

     negative rho (up, down):  0.000E+00 2.996E-03

     total cpu time spent up to now is       19.0 secs

     total energy              =    -506.80483339 Ry
     estimated scf accuracy    <          9.2E-09 Ry

     total magnetization       =    -0.00     0.00     6.01 Bohr mag/cell
     absolute magnetization    =     7.00 Bohr mag/cell
[tb_dev] Currently allocated     0.00E+00 Mbytes, locked:    0 /   0
[tb_pin] Currently allocated     0.00E+00 Mbytes, locked:    0 /   0

     iteration # 60     ecut=    30.00 Ry     beta= 0.30
     Davidson diagonalization with overlap

---- Real-time Memory Report at c_bands before calling an iterative solver
          1135 MiB given to the printing process from OS
           758 MiB allocation reported by mallinfo(arena+hblkhd)
        239482 MiB available memory on the node where the printing process lives
     GPU memory used/free/total (MiB): 1808 / 38632 / 40440
------------------
     ethr =  5.56E-12,  avg # of iterations =  6.7

     negative rho (up, down):  0.000E+00 2.996E-03

     total cpu time spent up to now is       19.3 secs

     total energy              =    -506.80483299 Ry
     estimated scf accuracy    <          6.6E-09 Ry

     total magnetization       =    -0.00     0.00     6.01 Bohr mag/cell
     absolute magnetization    =     7.00 Bohr mag/cell
[tb_dev] Currently allocated     0.00E+00 Mbytes, locked:    0 /   0
[tb_pin] Currently allocated     0.00E+00 Mbytes, locked:    0 /   0

     iteration # 61     ecut=    30.00 Ry     beta= 0.30
     Davidson diagonalization with overlap

---- Real-time Memory Report at c_bands before calling an iterative solver
          1135 MiB given to the printing process from OS
           758 MiB allocation reported by mallinfo(arena+hblkhd)
        239481 MiB available memory on the node where the printing process lives
     GPU memory used/free/total (MiB): 1808 / 38632 / 40440
------------------
     ethr =  5.56E-12,  avg # of iterations = 13.0

     negative rho (up, down):  0.000E+00 2.971E-03

     total cpu time spent up to now is       19.6 secs

     total energy              =    -506.80483351 Ry
     estimated scf accuracy    <          4.7E-09 Ry

     total magnetization       =     0.00     0.00     6.01 Bohr mag/cell
     absolute magnetization    =     7.00 Bohr mag/cell
[tb_dev] Currently allocated     0.00E+00 Mbytes, locked:    0 /   0
[tb_pin] Currently allocated     0.00E+00 Mbytes, locked:    0 /   0

     iteration # 62     ecut=    30.00 Ry     beta= 0.30
     Davidson diagonalization with overlap

---- Real-time Memory Report at c_bands before calling an iterative solver
          1135 MiB given to the printing process from OS
           758 MiB allocation reported by mallinfo(arena+hblkhd)
        239481 MiB available memory on the node where the printing process lives
     GPU memory used/free/total (MiB): 1808 / 38632 / 40440
------------------
     ethr =  5.56E-12,  avg # of iterations =  5.7

     negative rho (up, down):  0.000E+00 2.971E-03

     total cpu time spent up to now is       19.9 secs

     total energy              =    -506.80483377 Ry
     estimated scf accuracy    <          5.4E-09 Ry

     total magnetization       =    -0.00    -0.00     6.01 Bohr mag/cell
     absolute magnetization    =     7.00 Bohr mag/cell
[tb_dev] Currently allocated     0.00E+00 Mbytes, locked:    0 /   0
[tb_pin] Currently allocated     0.00E+00 Mbytes, locked:    0 /   0

     iteration # 63     ecut=    30.00 Ry     beta= 0.30
     Davidson diagonalization with overlap

---- Real-time Memory Report at c_bands before calling an iterative solver
          1135 MiB given to the printing process from OS
           758 MiB allocation reported by mallinfo(arena+hblkhd)
        239481 MiB available memory on the node where the printing process lives
     GPU memory used/free/total (MiB): 1808 / 38632 / 40440
------------------
     ethr =  5.56E-12,  avg # of iterations =  7.3

     negative rho (up, down):  0.000E+00 2.996E-03

     total cpu time spent up to now is       20.2 secs

     total energy              =    -506.80483366 Ry
     estimated scf accuracy    <          5.6E-09 Ry

     total magnetization       =    -0.00     0.00     6.01 Bohr mag/cell
     absolute magnetization    =     7.00 Bohr mag/cell
[tb_dev] Currently allocated     0.00E+00 Mbytes, locked:    0 /   0
[tb_pin] Currently allocated     0.00E+00 Mbytes, locked:    0 /   0

     iteration # 64     ecut=    30.00 Ry     beta= 0.30
     Davidson diagonalization with overlap

---- Real-time Memory Report at c_bands before calling an iterative solver
          1135 MiB given to the printing process from OS
           758 MiB allocation reported by mallinfo(arena+hblkhd)
        239480 MiB available memory on the node where the printing process lives
     GPU memory used/free/total (MiB): 1832 / 38608 / 40440
------------------
     ethr =  5.56E-12,  avg # of iterations = 12.0

     negative rho (up, down):  0.000E+00 2.996E-03

     total cpu time spent up to now is       20.5 secs

     total energy              =    -506.80483390 Ry
     estimated scf accuracy    <          5.3E-09 Ry

     total magnetization       =     0.00    -0.00     6.01 Bohr mag/cell
     absolute magnetization    =     7.00 Bohr mag/cell
[tb_dev] Currently allocated     0.00E+00 Mbytes, locked:    0 /   0
[tb_pin] Currently allocated     0.00E+00 Mbytes, locked:    0 /   0

     iteration # 65     ecut=    30.00 Ry     beta= 0.30
     Davidson diagonalization with overlap

---- Real-time Memory Report at c_bands before calling an iterative solver
          1135 MiB given to the printing process from OS
           758 MiB allocation reported by mallinfo(arena+hblkhd)
        239480 MiB available memory on the node where the printing process lives
     GPU memory used/free/total (MiB): 1832 / 38608 / 40440
------------------
     ethr =  5.56E-12,  avg # of iterations =  6.7

     negative rho (up, down):  0.000E+00 2.996E-03

     total cpu time spent up to now is       20.7 secs

     total energy              =    -506.80483398 Ry
     estimated scf accuracy    <          6.2E-09 Ry

     total magnetization       =    -0.00     0.00     6.01 Bohr mag/cell
     absolute magnetization    =     7.00 Bohr mag/cell
[tb_dev] Currently allocated     0.00E+00 Mbytes, locked:    0 /   0
[tb_pin] Currently allocated     0.00E+00 Mbytes, locked:    0 /   0

     iteration # 66     ecut=    30.00 Ry     beta= 0.30
     Davidson diagonalization with overlap

---- Real-time Memory Report at c_bands before calling an iterative solver
          1135 MiB given to the printing process from OS
           758 MiB allocation reported by mallinfo(arena+hblkhd)
        239480 MiB available memory on the node where the printing process lives
     GPU memory used/free/total (MiB): 1832 / 38608 / 40440
------------------
     ethr =  5.56E-12,  avg # of iterations =  2.0

     negative rho (up, down):  0.000E+00 2.971E-03

     total cpu time spent up to now is       20.9 secs

     total energy              =    -506.80483321 Ry
     estimated scf accuracy    <          6.2E-09 Ry

     total magnetization       =    -0.00    -0.00     6.01 Bohr mag/cell
     absolute magnetization    =     7.00 Bohr mag/cell
[tb_dev] Currently allocated     0.00E+00 Mbytes, locked:    0 /   0
[tb_pin] Currently allocated     0.00E+00 Mbytes, locked:    0 /   0

     iteration # 67     ecut=    30.00 Ry     beta= 0.30
     Davidson diagonalization with overlap

---- Real-time Memory Report at c_bands before calling an iterative solver
          1135 MiB given to the printing process from OS
           758 MiB allocation reported by mallinfo(arena+hblkhd)
        239480 MiB available memory on the node where the printing process lives
     GPU memory used/free/total (MiB): 1832 / 38608 / 40440
------------------
     ethr =  5.56E-12,  avg # of iterations = 12.7

     negative rho (up, down):  0.000E+00 2.971E-03

     total cpu time spent up to now is       21.3 secs

     total energy              =    -506.80483205 Ry
     estimated scf accuracy    <          7.2E-09 Ry

     total magnetization       =     0.00    -0.00     6.01 Bohr mag/cell
     absolute magnetization    =     7.00 Bohr mag/cell
[tb_dev] Currently allocated     0.00E+00 Mbytes, locked:    0 /   0
[tb_pin] Currently allocated     0.00E+00 Mbytes, locked:    0 /   0

     iteration # 68     ecut=    30.00 Ry     beta= 0.30
     Davidson diagonalization with overlap

---- Real-time Memory Report at c_bands before calling an iterative solver
          1135 MiB given to the printing process from OS
           758 MiB allocation reported by mallinfo(arena+hblkhd)
        239480 MiB available memory on the node where the printing process lives
     GPU memory used/free/total (MiB): 1832 / 38608 / 40440
------------------
     ethr =  5.56E-12,  avg # of iterations = 14.7

     negative rho (up, down):  0.000E+00 2.996E-03

     total cpu time spent up to now is       21.6 secs

     total energy              =    -506.80483203 Ry
     estimated scf accuracy    <       0.00000004 Ry

     total magnetization       =     0.00    -0.00     6.01 Bohr mag/cell
     absolute magnetization    =     7.01 Bohr mag/cell
[tb_dev] Currently allocated     0.00E+00 Mbytes, locked:    0 /   0
[tb_pin] Currently allocated     0.00E+00 Mbytes, locked:    0 /   0

     iteration # 69     ecut=    30.00 Ry     beta= 0.30
     Davidson diagonalization with overlap

---- Real-time Memory Report at c_bands before calling an iterative solver
          1135 MiB given to the printing process from OS
           758 MiB allocation reported by mallinfo(arena+hblkhd)
        239480 MiB available memory on the node where the printing process lives
     GPU memory used/free/total (MiB): 1832 / 38608 / 40440
------------------
     ethr =  5.56E-12,  avg # of iterations = 15.0

     negative rho (up, down):  0.000E+00 2.996E-03

     total cpu time spent up to now is       22.0 secs

     total energy              =    -506.80483387 Ry
     estimated scf accuracy    <          5.3E-09 Ry

     total magnetization       =     0.00     0.00     6.01 Bohr mag/cell
     absolute magnetization    =     7.00 Bohr mag/cell
[tb_dev] Currently allocated     0.00E+00 Mbytes, locked:    0 /   0
[tb_pin] Currently allocated     0.00E+00 Mbytes, locked:    0 /   0

     iteration # 70     ecut=    30.00 Ry     beta= 0.30
     Davidson diagonalization with overlap

---- Real-time Memory Report at c_bands before calling an iterative solver
          1135 MiB given to the printing process from OS
           758 MiB allocation reported by mallinfo(arena+hblkhd)
        239480 MiB available memory on the node where the printing process lives
     GPU memory used/free/total (MiB): 1832 / 38608 / 40440
------------------
     ethr =  5.56E-12,  avg # of iterations =  5.7

     negative rho (up, down):  0.000E+00 2.996E-03

     total cpu time spent up to now is       22.2 secs

     total energy              =    -506.80483401 Ry
     estimated scf accuracy    <          6.7E-09 Ry

     total magnetization       =    -0.00     0.00     6.01 Bohr mag/cell
     absolute magnetization    =     7.00 Bohr mag/cell
[tb_dev] Currently allocated     0.00E+00 Mbytes, locked:    0 /   0
[tb_pin] Currently allocated     0.00E+00 Mbytes, locked:    0 /   0

     iteration # 71     ecut=    30.00 Ry     beta= 0.30
     Davidson diagonalization with overlap

---- Real-time Memory Report at c_bands before calling an iterative solver
          1135 MiB given to the printing process from OS
           758 MiB allocation reported by mallinfo(arena+hblkhd)
        239480 MiB available memory on the node where the printing process lives
     GPU memory used/free/total (MiB): 1832 / 38608 / 40440
------------------
     ethr =  5.56E-12,  avg # of iterations =  5.3

     negative rho (up, down):  0.000E+00 2.996E-03

     total cpu time spent up to now is       22.5 secs

     total energy              =    -506.80483358 Ry
     estimated scf accuracy    <          6.8E-09 Ry

     total magnetization       =     0.00    -0.00     6.01 Bohr mag/cell
     absolute magnetization    =     7.00 Bohr mag/cell
[tb_dev] Currently allocated     0.00E+00 Mbytes, locked:    0 /   0
[tb_pin] Currently allocated     0.00E+00 Mbytes, locked:    0 /   0

     iteration # 72     ecut=    30.00 Ry     beta= 0.30
     Davidson diagonalization with overlap

---- Real-time Memory Report at c_bands before calling an iterative solver
          1135 MiB given to the printing process from OS
           758 MiB allocation reported by mallinfo(arena+hblkhd)
        239480 MiB available memory on the node where the printing process lives
     GPU memory used/free/total (MiB): 1832 / 38608 / 40440
------------------
     ethr =  5.56E-12,  avg # of iterations =  5.7

     negative rho (up, down):  0.000E+00 2.996E-03

     total cpu time spent up to now is       22.8 secs

     total energy              =    -506.80483351 Ry
     estimated scf accuracy    <          6.6E-09 Ry

     total magnetization       =    -0.00    -0.00     6.01 Bohr mag/cell
     absolute magnetization    =     7.00 Bohr mag/cell
[tb_dev] Currently allocated     0.00E+00 Mbytes, locked:    0 /   0
[tb_pin] Currently allocated     0.00E+00 Mbytes, locked:    0 /   0

     iteration # 73     ecut=    30.00 Ry     beta= 0.30
     Davidson diagonalization with overlap

---- Real-time Memory Report at c_bands before calling an iterative solver
          1135 MiB given to the printing process from OS
           758 MiB allocation reported by mallinfo(arena+hblkhd)
        239479 MiB available memory on the node where the printing process lives
     GPU memory used/free/total (MiB): 1832 / 38608 / 40440
------------------
     ethr =  5.56E-12,  avg # of iterations =  6.7

     negative rho (up, down):  0.000E+00 2.996E-03

     total cpu time spent up to now is       23.0 secs

     total energy              =    -506.80483383 Ry
     estimated scf accuracy    <          6.7E-09 Ry

     total magnetization       =     0.00     0.00     6.01 Bohr mag/cell
     absolute magnetization    =     7.00 Bohr mag/cell
[tb_dev] Currently allocated     0.00E+00 Mbytes, locked:    0 /   0
[tb_pin] Currently allocated     0.00E+00 Mbytes, locked:    0 /   0

     iteration # 74     ecut=    30.00 Ry     beta= 0.30
     Davidson diagonalization with overlap

---- Real-time Memory Report at c_bands before calling an iterative solver
          1135 MiB given to the printing process from OS
           758 MiB allocation reported by mallinfo(arena+hblkhd)
        239480 MiB available memory on the node where the printing process lives
     GPU memory used/free/total (MiB): 1832 / 38608 / 40440
------------------
     ethr =  5.56E-12,  avg # of iterations =  5.7

     negative rho (up, down):  0.000E+00 2.996E-03

     total cpu time spent up to now is       23.3 secs

     total energy              =    -506.80483375 Ry
     estimated scf accuracy    <          6.3E-09 Ry

     total magnetization       =    -0.00    -0.00     6.01 Bohr mag/cell
     absolute magnetization    =     7.00 Bohr mag/cell
[tb_dev] Currently allocated     0.00E+00 Mbytes, locked:    0 /   0
[tb_pin] Currently allocated     0.00E+00 Mbytes, locked:    0 /   0

     iteration # 75     ecut=    30.00 Ry     beta= 0.30
     Davidson diagonalization with overlap

---- Real-time Memory Report at c_bands before calling an iterative solver
          1135 MiB given to the printing process from OS
           758 MiB allocation reported by mallinfo(arena+hblkhd)
        239479 MiB available memory on the node where the printing process lives
     GPU memory used/free/total (MiB): 1832 / 38608 / 40440
------------------
     ethr =  5.56E-12,  avg # of iterations =  6.0

     negative rho (up, down):  0.000E+00 2.996E-03

     total cpu time spent up to now is       23.6 secs

     total energy              =    -506.80483379 Ry
     estimated scf accuracy    <          6.2E-09 Ry

     total magnetization       =     0.00    -0.00     6.01 Bohr mag/cell
     absolute magnetization    =     7.00 Bohr mag/cell
[tb_dev] Currently allocated     0.00E+00 Mbytes, locked:    0 /   0
[tb_pin] Currently allocated     0.00E+00 Mbytes, locked:    0 /   0

     iteration # 76     ecut=    30.00 Ry     beta= 0.30
     Davidson diagonalization with overlap

---- Real-time Memory Report at c_bands before calling an iterative solver
          1135 MiB given to the printing process from OS
           758 MiB allocation reported by mallinfo(arena+hblkhd)
        239479 MiB available memory on the node where the printing process lives
     GPU memory used/free/total (MiB): 1832 / 38608 / 40440
------------------
     ethr =  5.56E-12,  avg # of iterations =  6.0

     negative rho (up, down):  0.000E+00 2.971E-03

     total cpu time spent up to now is       23.8 secs

     total energy              =    -506.80480770 Ry
     estimated scf accuracy    <          6.0E-09 Ry

     total magnetization       =     0.00    -0.00     6.01 Bohr mag/cell
     absolute magnetization    =     7.00 Bohr mag/cell
[tb_dev] Currently allocated     0.00E+00 Mbytes, locked:    0 /   0
[tb_pin] Currently allocated     0.00E+00 Mbytes, locked:    0 /   0

     iteration # 77     ecut=    30.00 Ry     beta= 0.30
     Davidson diagonalization with overlap

---- Real-time Memory Report at c_bands before calling an iterative solver
          1135 MiB given to the printing process from OS
           758 MiB allocation reported by mallinfo(arena+hblkhd)
        239479 MiB available memory on the node where the printing process lives
     GPU memory used/free/total (MiB): 1832 / 38608 / 40440
------------------
     ethr =  5.56E-12,  avg # of iterations = 15.7

     negative rho (up, down):  0.000E+00 2.996E-03

     total cpu time spent up to now is       24.2 secs

     total energy              =    -506.80481473 Ry
     estimated scf accuracy    <       0.00000235 Ry

     total magnetization       =     0.00     0.00     6.01 Bohr mag/cell
     absolute magnetization    =     7.00 Bohr mag/cell
[tb_dev] Currently allocated     0.00E+00 Mbytes, locked:    0 /   0
[tb_pin] Currently allocated     0.00E+00 Mbytes, locked:    0 /   0

     iteration # 78     ecut=    30.00 Ry     beta= 0.30
     Davidson diagonalization with overlap

---- Real-time Memory Report at c_bands before calling an iterative solver
          1135 MiB given to the printing process from OS
           758 MiB allocation reported by mallinfo(arena+hblkhd)
        239477 MiB available memory on the node where the printing process lives
     GPU memory used/free/total (MiB): 1832 / 38608 / 40440
------------------
     ethr =  5.56E-12,  avg # of iterations = 16.3

     negative rho (up, down):  0.000E+00 2.996E-03

     total cpu time spent up to now is       24.7 secs

     total energy              =    -506.80483318 Ry
     estimated scf accuracy    <          9.4E-09 Ry

     total magnetization       =    -0.00    -0.00     6.01 Bohr mag/cell
     absolute magnetization    =     7.00 Bohr mag/cell
[tb_dev] Currently allocated     0.00E+00 Mbytes, locked:    0 /   0
[tb_pin] Currently allocated     0.00E+00 Mbytes, locked:    0 /   0

     iteration # 79     ecut=    30.00 Ry     beta= 0.30
     Davidson diagonalization with overlap

---- Real-time Memory Report at c_bands before calling an iterative solver
          1135 MiB given to the printing process from OS
           758 MiB allocation reported by mallinfo(arena+hblkhd)
        239477 MiB available memory on the node where the printing process lives
     GPU memory used/free/total (MiB): 1832 / 38608 / 40440
------------------
     ethr =  5.56E-12,  avg # of iterations = 12.7

     negative rho (up, down):  0.000E+00 2.996E-03

     total cpu time spent up to now is       25.0 secs

     total energy              =    -506.80483338 Ry
     estimated scf accuracy    <       0.00000001 Ry

     total magnetization       =     0.00     0.00     6.01 Bohr mag/cell
     absolute magnetization    =     7.00 Bohr mag/cell
[tb_dev] Currently allocated     0.00E+00 Mbytes, locked:    0 /   0
[tb_pin] Currently allocated     0.00E+00 Mbytes, locked:    0 /   0

     iteration # 80     ecut=    30.00 Ry     beta= 0.30
     Davidson diagonalization with overlap

---- Real-time Memory Report at c_bands before calling an iterative solver
          1135 MiB given to the printing process from OS
           758 MiB allocation reported by mallinfo(arena+hblkhd)
        239477 MiB available memory on the node where the printing process lives
     GPU memory used/free/total (MiB): 1832 / 38608 / 40440
------------------
     ethr =  5.56E-12,  avg # of iterations = 13.0

     negative rho (up, down):  0.000E+00 2.996E-03

     total cpu time spent up to now is       25.3 secs

     total energy              =    -506.80483479 Ry
     estimated scf accuracy    <       0.00000001 Ry

     total magnetization       =     0.00    -0.00     6.01 Bohr mag/cell
     absolute magnetization    =     7.00 Bohr mag/cell
[tb_dev] Currently allocated     0.00E+00 Mbytes, locked:    0 /   0
[tb_pin] Currently allocated     0.00E+00 Mbytes, locked:    0 /   0

     iteration # 81     ecut=    30.00 Ry     beta= 0.30
     Davidson diagonalization with overlap

---- Real-time Memory Report at c_bands before calling an iterative solver
          1135 MiB given to the printing process from OS
           758 MiB allocation reported by mallinfo(arena+hblkhd)
        239477 MiB available memory on the node where the printing process lives
     GPU memory used/free/total (MiB): 1832 / 38608 / 40440
------------------
     ethr =  5.56E-12,  avg # of iterations =  5.7

     negative rho (up, down):  0.000E+00 2.996E-03

     total cpu time spent up to now is       25.6 secs

     total energy              =    -506.80483353 Ry
     estimated scf accuracy    <       0.00000001 Ry

     total magnetization       =    -0.00    -0.00     6.01 Bohr mag/cell
     absolute magnetization    =     7.00 Bohr mag/cell
[tb_dev] Currently allocated     0.00E+00 Mbytes, locked:    0 /   0
[tb_pin] Currently allocated     0.00E+00 Mbytes, locked:    0 /   0

     iteration # 82     ecut=    30.00 Ry     beta= 0.30
     Davidson diagonalization with overlap

---- Real-time Memory Report at c_bands before calling an iterative solver
          1135 MiB given to the printing process from OS
           758 MiB allocation reported by mallinfo(arena+hblkhd)
        239478 MiB available memory on the node where the printing process lives
     GPU memory used/free/total (MiB): 1832 / 38608 / 40440
------------------
     ethr =  5.56E-12,  avg # of iterations = 11.7

     negative rho (up, down):  0.000E+00 2.996E-03

     total cpu time spent up to now is       25.9 secs

     total energy              =    -506.80483433 Ry
     estimated scf accuracy    <          1.0E-08 Ry

     total magnetization       =    -0.00     0.00     6.01 Bohr mag/cell
     absolute magnetization    =     7.00 Bohr mag/cell
[tb_dev] Currently allocated     0.00E+00 Mbytes, locked:    0 /   0
[tb_pin] Currently allocated     0.00E+00 Mbytes, locked:    0 /   0

     iteration # 83     ecut=    30.00 Ry     beta= 0.30
     Davidson diagonalization with overlap

---- Real-time Memory Report at c_bands before calling an iterative solver
          1135 MiB given to the printing process from OS
           758 MiB allocation reported by mallinfo(arena+hblkhd)
        239478 MiB available memory on the node where the printing process lives
     GPU memory used/free/total (MiB): 1832 / 38608 / 40440
------------------
     ethr =  5.56E-12,  avg # of iterations =  8.3

     negative rho (up, down):  0.000E+00 2.996E-03

     total cpu time spent up to now is       26.2 secs

     total energy              =    -506.80483428 Ry
     estimated scf accuracy    <       0.00000001 Ry

     total magnetization       =    -0.00     0.00     6.01 Bohr mag/cell
     absolute magnetization    =     7.00 Bohr mag/cell
[tb_dev] Currently allocated     0.00E+00 Mbytes, locked:    0 /   0
[tb_pin] Currently allocated     0.00E+00 Mbytes, locked:    0 /   0

     iteration # 84     ecut=    30.00 Ry     beta= 0.30
     Davidson diagonalization with overlap

---- Real-time Memory Report at c_bands before calling an iterative solver
          1135 MiB given to the printing process from OS
           758 MiB allocation reported by mallinfo(arena+hblkhd)
        239478 MiB available memory on the node where the printing process lives
     GPU memory used/free/total (MiB): 1832 / 38608 / 40440
------------------
     ethr =  5.56E-12,  avg # of iterations =  3.0

     negative rho (up, down):  0.000E+00 2.996E-03

     total cpu time spent up to now is       26.5 secs

     total energy              =    -506.80483434 Ry
     estimated scf accuracy    <       0.00000001 Ry

     total magnetization       =    -0.00    -0.00     6.01 Bohr mag/cell
     absolute magnetization    =     7.00 Bohr mag/cell
[tb_dev] Currently allocated     0.00E+00 Mbytes, locked:    0 /   0
[tb_pin] Currently allocated     0.00E+00 Mbytes, locked:    0 /   0

     iteration # 85     ecut=    30.00 Ry     beta= 0.30
     Davidson diagonalization with overlap

---- Real-time Memory Report at c_bands before calling an iterative solver
          1135 MiB given to the printing process from OS
           758 MiB allocation reported by mallinfo(arena+hblkhd)
        239478 MiB available memory on the node where the printing process lives
     GPU memory used/free/total (MiB): 1832 / 38608 / 40440
------------------
     ethr =  5.56E-12,  avg # of iterations =  4.0

     negative rho (up, down):  0.000E+00 2.996E-03

     total cpu time spent up to now is       26.7 secs

     total energy              =    -506.80483381 Ry
     estimated scf accuracy    <       0.00000001 Ry

     total magnetization       =     0.00     0.00     6.01 Bohr mag/cell
     absolute magnetization    =     7.00 Bohr mag/cell
[tb_dev] Currently allocated     0.00E+00 Mbytes, locked:    0 /   0
[tb_pin] Currently allocated     0.00E+00 Mbytes, locked:    0 /   0

     iteration # 86     ecut=    30.00 Ry     beta= 0.30
     Davidson diagonalization with overlap

---- Real-time Memory Report at c_bands before calling an iterative solver
          1135 MiB given to the printing process from OS
           758 MiB allocation reported by mallinfo(arena+hblkhd)
        239478 MiB available memory on the node where the printing process lives
     GPU memory used/free/total (MiB): 1832 / 38608 / 40440
------------------
     ethr =  5.56E-12,  avg # of iterations =  5.3

     negative rho (up, down):  0.000E+00 2.996E-03

     total cpu time spent up to now is       26.9 secs

     total energy              =    -506.80483335 Ry
     estimated scf accuracy    <          9.8E-09 Ry

     total magnetization       =     0.00    -0.00     6.01 Bohr mag/cell
     absolute magnetization    =     7.00 Bohr mag/cell
[tb_dev] Currently allocated     0.00E+00 Mbytes, locked:    0 /   0
[tb_pin] Currently allocated     0.00E+00 Mbytes, locked:    0 /   0

     iteration # 87     ecut=    30.00 Ry     beta= 0.30
     Davidson diagonalization with overlap

---- Real-time Memory Report at c_bands before calling an iterative solver
          1135 MiB given to the printing process from OS
           758 MiB allocation reported by mallinfo(arena+hblkhd)
        239478 MiB available memory on the node where the printing process lives
     GPU memory used/free/total (MiB): 1832 / 38608 / 40440
------------------
     ethr =  5.56E-12,  avg # of iterations = 13.0

     negative rho (up, down):  0.000E+00 2.996E-03

     total cpu time spent up to now is       27.3 secs

     total energy              =    -506.80483358 Ry
     estimated scf accuracy    <          9.7E-09 Ry

     total magnetization       =    -0.00     0.00     6.01 Bohr mag/cell
     absolute magnetization    =     7.00 Bohr mag/cell
[tb_dev] Currently allocated     0.00E+00 Mbytes, locked:    0 /   0
[tb_pin] Currently allocated     0.00E+00 Mbytes, locked:    0 /   0

     iteration # 88     ecut=    30.00 Ry     beta= 0.30
     Davidson diagonalization with overlap

---- Real-time Memory Report at c_bands before calling an iterative solver
          1135 MiB given to the printing process from OS
           758 MiB allocation reported by mallinfo(arena+hblkhd)
        239479 MiB available memory on the node where the printing process lives
     GPU memory used/free/total (MiB): 1832 / 38608 / 40440
------------------
     ethr =  5.56E-12,  avg # of iterations =  3.7

     negative rho (up, down):  0.000E+00 2.996E-03

     total cpu time spent up to now is       27.5 secs

     total energy              =    -506.80483375 Ry
     estimated scf accuracy    <       0.00000001 Ry

     total magnetization       =     0.00    -0.00     6.01 Bohr mag/cell
     absolute magnetization    =     7.00 Bohr mag/cell
[tb_dev] Currently allocated     0.00E+00 Mbytes, locked:    0 /   0
[tb_pin] Currently allocated     0.00E+00 Mbytes, locked:    0 /   0

     iteration # 89     ecut=    30.00 Ry     beta= 0.30
     Davidson diagonalization with overlap

---- Real-time Memory Report at c_bands before calling an iterative solver
          1135 MiB given to the printing process from OS
           758 MiB allocation reported by mallinfo(arena+hblkhd)
        239479 MiB available memory on the node where the printing process lives
     GPU memory used/free/total (MiB): 1832 / 38608 / 40440
------------------
     ethr =  5.56E-12,  avg # of iterations =  8.0

     negative rho (up, down):  0.000E+00 2.996E-03

     total cpu time spent up to now is       27.8 secs

     total energy              =    -506.80483316 Ry
     estimated scf accuracy    <          7.3E-09 Ry

     total magnetization       =    -0.00     0.00     6.01 Bohr mag/cell
     absolute magnetization    =     7.00 Bohr mag/cell
[tb_dev] Currently allocated     0.00E+00 Mbytes, locked:    0 /   0
[tb_pin] Currently allocated     0.00E+00 Mbytes, locked:    0 /   0

     iteration # 90     ecut=    30.00 Ry     beta= 0.30
     Davidson diagonalization with overlap

---- Real-time Memory Report at c_bands before calling an iterative solver
          1135 MiB given to the printing process from OS
           758 MiB allocation reported by mallinfo(arena+hblkhd)
        239479 MiB available memory on the node where the printing process lives
     GPU memory used/free/total (MiB): 1832 / 38608 / 40440
------------------
     ethr =  5.56E-12,  avg # of iterations = 11.3

     negative rho (up, down):  0.000E+00 2.996E-03

     total cpu time spent up to now is       28.1 secs

     total energy              =    -506.80483194 Ry
     estimated scf accuracy    <          7.6E-09 Ry

     total magnetization       =    -0.00    -0.00     6.01 Bohr mag/cell
     absolute magnetization    =     7.00 Bohr mag/cell
[tb_dev] Currently allocated     0.00E+00 Mbytes, locked:    0 /   0
[tb_pin] Currently allocated     0.00E+00 Mbytes, locked:    0 /   0

     iteration # 91     ecut=    30.00 Ry     beta= 0.30
     Davidson diagonalization with overlap

---- Real-time Memory Report at c_bands before calling an iterative solver
          1135 MiB given to the printing process from OS
           758 MiB allocation reported by mallinfo(arena+hblkhd)
        239479 MiB available memory on the node where the printing process lives
     GPU memory used/free/total (MiB): 1832 / 38608 / 40440
------------------
     ethr =  5.56E-12,  avg # of iterations = 14.3

     negative rho (up, down):  0.000E+00 2.996E-03

     total cpu time spent up to now is       28.4 secs

     total energy              =    -506.80483179 Ry
     estimated scf accuracy    <       0.00000002 Ry

     total magnetization       =    -0.00    -0.00     6.01 Bohr mag/cell
     absolute magnetization    =     7.01 Bohr mag/cell
[tb_dev] Currently allocated     0.00E+00 Mbytes, locked:    0 /   0
[tb_pin] Currently allocated     0.00E+00 Mbytes, locked:    0 /   0

     iteration # 92     ecut=    30.00 Ry     beta= 0.30
     Davidson diagonalization with overlap

---- Real-time Memory Report at c_bands before calling an iterative solver
          1135 MiB given to the printing process from OS
           758 MiB allocation reported by mallinfo(arena+hblkhd)
        239479 MiB available memory on the node where the printing process lives
     GPU memory used/free/total (MiB): 1832 / 38608 / 40440
------------------
     ethr =  5.56E-12,  avg # of iterations = 14.0

     negative rho (up, down):  0.000E+00 2.996E-03

     total cpu time spent up to now is       28.8 secs

     total energy              =    -506.80483423 Ry
     estimated scf accuracy    <          6.9E-09 Ry

     total magnetization       =     0.00    -0.00     6.01 Bohr mag/cell
     absolute magnetization    =     7.00 Bohr mag/cell
[tb_dev] Currently allocated     0.00E+00 Mbytes, locked:    0 /   0
[tb_pin] Currently allocated     0.00E+00 Mbytes, locked:    0 /   0

     iteration # 93     ecut=    30.00 Ry     beta= 0.30
     Davidson diagonalization with overlap

---- Real-time Memory Report at c_bands before calling an iterative solver
          1135 MiB given to the printing process from OS
           758 MiB allocation reported by mallinfo(arena+hblkhd)
        239479 MiB available memory on the node where the printing process lives
     GPU memory used/free/total (MiB): 1832 / 38608 / 40440
------------------
     ethr =  5.56E-12,  avg # of iterations =  9.3

     negative rho (up, down):  0.000E+00 2.996E-03

     total cpu time spent up to now is       29.1 secs

     total energy              =    -506.80483428 Ry
     estimated scf accuracy    <          8.4E-09 Ry

     total magnetization       =     0.00     0.00     6.01 Bohr mag/cell
     absolute magnetization    =     7.00 Bohr mag/cell
[tb_dev] Currently allocated     0.00E+00 Mbytes, locked:    0 /   0
[tb_pin] Currently allocated     0.00E+00 Mbytes, locked:    0 /   0

     iteration # 94     ecut=    30.00 Ry     beta= 0.30
     Davidson diagonalization with overlap

---- Real-time Memory Report at c_bands before calling an iterative solver
          1135 MiB given to the printing process from OS
           758 MiB allocation reported by mallinfo(arena+hblkhd)
        239479 MiB available memory on the node where the printing process lives
     GPU memory used/free/total (MiB): 1832 / 38608 / 40440
------------------
     ethr =  5.56E-12,  avg # of iterations = 10.0

     negative rho (up, down):  0.000E+00 2.996E-03

     total cpu time spent up to now is       29.4 secs

     total energy              =    -506.80483391 Ry
     estimated scf accuracy    <          9.5E-09 Ry

     total magnetization       =     0.00     0.00     6.01 Bohr mag/cell
     absolute magnetization    =     7.00 Bohr mag/cell
[tb_dev] Currently allocated     0.00E+00 Mbytes, locked:    0 /   0
[tb_pin] Currently allocated     0.00E+00 Mbytes, locked:    0 /   0

     iteration # 95     ecut=    30.00 Ry     beta= 0.30
     Davidson diagonalization with overlap

---- Real-time Memory Report at c_bands before calling an iterative solver
          1135 MiB given to the printing process from OS
           758 MiB allocation reported by mallinfo(arena+hblkhd)
        239477 MiB available memory on the node where the printing process lives
     GPU memory used/free/total (MiB): 1832 / 38608 / 40440
------------------
     ethr =  5.56E-12,  avg # of iterations = 10.3

     negative rho (up, down):  0.000E+00 2.996E-03

     total cpu time spent up to now is       29.7 secs

     total energy              =    -506.80480258 Ry
     estimated scf accuracy    <       0.00000001 Ry

     total magnetization       =     0.00    -0.00     6.01 Bohr mag/cell
     absolute magnetization    =     7.00 Bohr mag/cell
[tb_dev] Currently allocated     0.00E+00 Mbytes, locked:    0 /   0
[tb_pin] Currently allocated     0.00E+00 Mbytes, locked:    0 /   0

     iteration # 96     ecut=    30.00 Ry     beta= 0.30
     Davidson diagonalization with overlap

---- Real-time Memory Report at c_bands before calling an iterative solver
          1135 MiB given to the printing process from OS
           758 MiB allocation reported by mallinfo(arena+hblkhd)
        239478 MiB available memory on the node where the printing process lives
     GPU memory used/free/total (MiB): 1832 / 38608 / 40440
------------------
     ethr =  5.56E-12,  avg # of iterations = 16.0

     negative rho (up, down):  0.000E+00 2.996E-03

     total cpu time spent up to now is       30.1 secs

     total energy              =    -506.80481181 Ry
     estimated scf accuracy    <       0.00000162 Ry

     total magnetization       =     0.00     0.00     6.01 Bohr mag/cell
     absolute magnetization    =     7.00 Bohr mag/cell
[tb_dev] Currently allocated     0.00E+00 Mbytes, locked:    0 /   0
[tb_pin] Currently allocated     0.00E+00 Mbytes, locked:    0 /   0

     iteration # 97     ecut=    30.00 Ry     beta= 0.30
     Davidson diagonalization with overlap

---- Real-time Memory Report at c_bands before calling an iterative solver
          1135 MiB given to the printing process from OS
           758 MiB allocation reported by mallinfo(arena+hblkhd)
        239478 MiB available memory on the node where the printing process lives
     GPU memory used/free/total (MiB): 1832 / 38608 / 40440
------------------
     ethr =  5.56E-12,  avg # of iterations = 16.0

     negative rho (up, down):  0.000E+00 2.996E-03

     total cpu time spent up to now is       30.5 secs

     total energy              =    -506.80483447 Ry
     estimated scf accuracy    <       0.00000001 Ry

     total magnetization       =    -0.00     0.00     6.01 Bohr mag/cell
     absolute magnetization    =     7.00 Bohr mag/cell
[tb_dev] Currently allocated     0.00E+00 Mbytes, locked:    0 /   0
[tb_pin] Currently allocated     0.00E+00 Mbytes, locked:    0 /   0

     iteration # 98     ecut=    30.00 Ry     beta= 0.30
     Davidson diagonalization with overlap

---- Real-time Memory Report at c_bands before calling an iterative solver
          1135 MiB given to the printing process from OS
           758 MiB allocation reported by mallinfo(arena+hblkhd)
        239477 MiB available memory on the node where the printing process lives
     GPU memory used/free/total (MiB): 1832 / 38608 / 40440
------------------
     ethr =  5.56E-12,  avg # of iterations =  4.7

     negative rho (up, down):  0.000E+00 2.971E-03

     total cpu time spent up to now is       30.8 secs

     total energy              =    -506.80480338 Ry
     estimated scf accuracy    <       0.00000001 Ry

     total magnetization       =     0.00    -0.00     6.01 Bohr mag/cell
     absolute magnetization    =     7.00 Bohr mag/cell
[tb_dev] Currently allocated     0.00E+00 Mbytes, locked:    0 /   0
[tb_pin] Currently allocated     0.00E+00 Mbytes, locked:    0 /   0

     iteration # 99     ecut=    30.00 Ry     beta= 0.30
     Davidson diagonalization with overlap

---- Real-time Memory Report at c_bands before calling an iterative solver
          1135 MiB given to the printing process from OS
           758 MiB allocation reported by mallinfo(arena+hblkhd)
        239477 MiB available memory on the node where the printing process lives
     GPU memory used/free/total (MiB): 1832 / 38608 / 40440
------------------
     ethr =  5.56E-12,  avg # of iterations = 15.0

     negative rho (up, down):  0.000E+00 2.971E-03

     total cpu time spent up to now is       31.2 secs

     total energy              =    -506.80482530 Ry
     estimated scf accuracy    <       0.00000153 Ry

     total magnetization       =     0.00    -0.00     6.01 Bohr mag/cell
     absolute magnetization    =     7.00 Bohr mag/cell
[tb_dev] Currently allocated     0.00E+00 Mbytes, locked:    0 /   0
[tb_pin] Currently allocated     0.00E+00 Mbytes, locked:    0 /   0

     iteration #100     ecut=    30.00 Ry     beta= 0.30
     Davidson diagonalization with overlap

---- Real-time Memory Report at c_bands before calling an iterative solver
          1135 MiB given to the printing process from OS
           758 MiB allocation reported by mallinfo(arena+hblkhd)
        239478 MiB available memory on the node where the printing process lives
     GPU memory used/free/total (MiB): 1832 / 38608 / 40440
------------------
     ethr =  5.56E-12,  avg # of iterations =  9.3

     negative rho (up, down):  0.000E+00 2.971E-03

     total cpu time spent up to now is       31.5 secs

     total energy              =    -506.80482537 Ry
     estimated scf accuracy    <       0.00000114 Ry

     total magnetization       =    -0.00    -0.00     6.01 Bohr mag/cell
     absolute magnetization    =     7.00 Bohr mag/cell
[tb_dev] Currently allocated     0.00E+00 Mbytes, locked:    0 /   0
[tb_pin] Currently allocated     0.00E+00 Mbytes, locked:    0 /   0

     iteration #101     ecut=    30.00 Ry     beta= 0.30
     Davidson diagonalization with overlap

---- Real-time Memory Report at c_bands before calling an iterative solver
          1135 MiB given to the printing process from OS
           758 MiB allocation reported by mallinfo(arena+hblkhd)
        239478 MiB available memory on the node where the printing process lives
     GPU memory used/free/total (MiB): 1832 / 38608 / 40440
------------------
     ethr =  5.56E-12,  avg # of iterations =  4.7

     negative rho (up, down):  0.000E+00 2.971E-03

     total cpu time spent up to now is       31.7 secs

     total energy              =    -506.80482507 Ry
     estimated scf accuracy    <       0.00000137 Ry

     total magnetization       =     0.00     0.00     6.01 Bohr mag/cell
     absolute magnetization    =     7.00 Bohr mag/cell
[tb_dev] Currently allocated     0.00E+00 Mbytes, locked:    0 /   0
[tb_pin] Currently allocated     0.00E+00 Mbytes, locked:    0 /   0

     iteration #102     ecut=    30.00 Ry     beta= 0.30
     Davidson diagonalization with overlap

---- Real-time Memory Report at c_bands before calling an iterative solver
          1135 MiB given to the printing process from OS
           758 MiB allocation reported by mallinfo(arena+hblkhd)
        239478 MiB available memory on the node where the printing process lives
     GPU memory used/free/total (MiB): 1832 / 38608 / 40440
------------------
     ethr =  5.56E-12,  avg # of iterations =  6.0

     negative rho (up, down):  0.000E+00 2.971E-03

     total cpu time spent up to now is       32.0 secs

     total energy              =    -506.80482520 Ry
     estimated scf accuracy    <       0.00000149 Ry

     total magnetization       =    -0.00    -0.00     6.01 Bohr mag/cell
     absolute magnetization    =     7.00 Bohr mag/cell
[tb_dev] Currently allocated     0.00E+00 Mbytes, locked:    0 /   0
[tb_pin] Currently allocated     0.00E+00 Mbytes, locked:    0 /   0

     iteration #103     ecut=    30.00 Ry     beta= 0.30
     Davidson diagonalization with overlap

---- Real-time Memory Report at c_bands before calling an iterative solver
          1135 MiB given to the printing process from OS
           758 MiB allocation reported by mallinfo(arena+hblkhd)
        239478 MiB available memory on the node where the printing process lives
     GPU memory used/free/total (MiB): 1832 / 38608 / 40440
------------------
     ethr =  5.56E-12,  avg # of iterations =  5.7

     negative rho (up, down):  0.000E+00 2.971E-03

     total cpu time spent up to now is       32.3 secs

     total energy              =    -506.80482531 Ry
     estimated scf accuracy    <       0.00000156 Ry

     total magnetization       =    -0.00     0.00     6.01 Bohr mag/cell
     absolute magnetization    =     7.00 Bohr mag/cell
[tb_dev] Currently allocated     0.00E+00 Mbytes, locked:    0 /   0
[tb_pin] Currently allocated     0.00E+00 Mbytes, locked:    0 /   0

     iteration #104     ecut=    30.00 Ry     beta= 0.30
     Davidson diagonalization with overlap

---- Real-time Memory Report at c_bands before calling an iterative solver
          1135 MiB given to the printing process from OS
           758 MiB allocation reported by mallinfo(arena+hblkhd)
        239478 MiB available memory on the node where the printing process lives
     GPU memory used/free/total (MiB): 1832 / 38608 / 40440
------------------
     ethr =  5.56E-12,  avg # of iterations =  3.0

     negative rho (up, down):  0.000E+00 2.971E-03

     total cpu time spent up to now is       32.5 secs

     total energy              =    -506.80482534 Ry
     estimated scf accuracy    <       0.00000146 Ry

     total magnetization       =    -0.00     0.00     6.01 Bohr mag/cell
     absolute magnetization    =     7.00 Bohr mag/cell
[tb_dev] Currently allocated     0.00E+00 Mbytes, locked:    0 /   0
[tb_pin] Currently allocated     0.00E+00 Mbytes, locked:    0 /   0

     iteration #105     ecut=    30.00 Ry     beta= 0.30
     Davidson diagonalization with overlap

---- Real-time Memory Report at c_bands before calling an iterative solver
          1135 MiB given to the printing process from OS
           758 MiB allocation reported by mallinfo(arena+hblkhd)
        239478 MiB available memory on the node where the printing process lives
     GPU memory used/free/total (MiB): 1832 / 38608 / 40440
------------------
     ethr =  5.56E-12,  avg # of iterations =  4.7

     negative rho (up, down):  0.000E+00 2.971E-03

     total cpu time spent up to now is       32.7 secs

     total energy              =    -506.80482523 Ry
     estimated scf accuracy    <       0.00000143 Ry

     total magnetization       =     0.00    -0.00     6.01 Bohr mag/cell
     absolute magnetization    =     7.00 Bohr mag/cell
[tb_dev] Currently allocated     0.00E+00 Mbytes, locked:    0 /   0
[tb_pin] Currently allocated     0.00E+00 Mbytes, locked:    0 /   0

     iteration #106     ecut=    30.00 Ry     beta= 0.30
     Davidson diagonalization with overlap

---- Real-time Memory Report at c_bands before calling an iterative solver
          1135 MiB given to the printing process from OS
           758 MiB allocation reported by mallinfo(arena+hblkhd)
        239478 MiB available memory on the node where the printing process lives
     GPU memory used/free/total (MiB): 1832 / 38608 / 40440
------------------
     ethr =  5.56E-12,  avg # of iterations =  3.0

     negative rho (up, down):  0.000E+00 2.971E-03

     total cpu time spent up to now is       32.9 secs

     total energy              =    -506.80482550 Ry
     estimated scf accuracy    <       0.00000160 Ry

     total magnetization       =    -0.00    -0.00     6.01 Bohr mag/cell
     absolute magnetization    =     7.00 Bohr mag/cell
[tb_dev] Currently allocated     0.00E+00 Mbytes, locked:    0 /   0
[tb_pin] Currently allocated     0.00E+00 Mbytes, locked:    0 /   0

     iteration #107     ecut=    30.00 Ry     beta= 0.30
     Davidson diagonalization with overlap

---- Real-time Memory Report at c_bands before calling an iterative solver
          1135 MiB given to the printing process from OS
           758 MiB allocation reported by mallinfo(arena+hblkhd)
        239477 MiB available memory on the node where the printing process lives
     GPU memory used/free/total (MiB): 1832 / 38608 / 40440
------------------
     ethr =  5.56E-12,  avg # of iterations =  5.0

     negative rho (up, down):  0.000E+00 2.996E-03

     total cpu time spent up to now is       33.2 secs

     total energy              =    -506.80482610 Ry
     estimated scf accuracy    <       0.00000156 Ry

     total magnetization       =     0.00    -0.00     6.01 Bohr mag/cell
     absolute magnetization    =     7.00 Bohr mag/cell
[tb_dev] Currently allocated     0.00E+00 Mbytes, locked:    0 /   0
[tb_pin] Currently allocated     0.00E+00 Mbytes, locked:    0 /   0

     iteration #108     ecut=    30.00 Ry     beta= 0.30
     Davidson diagonalization with overlap

---- Real-time Memory Report at c_bands before calling an iterative solver
          1135 MiB given to the printing process from OS
           758 MiB allocation reported by mallinfo(arena+hblkhd)
        239477 MiB available memory on the node where the printing process lives
     GPU memory used/free/total (MiB): 1832 / 38608 / 40440
------------------
     ethr =  5.56E-12,  avg # of iterations = 10.7

     negative rho (up, down):  0.000E+00 2.996E-03

     total cpu time spent up to now is       33.5 secs

     total energy              =    -506.80482620 Ry
     estimated scf accuracy    <          6.1E-09 Ry

     total magnetization       =     0.00     0.00     6.01 Bohr mag/cell
     absolute magnetization    =     7.00 Bohr mag/cell
[tb_dev] Currently allocated     0.00E+00 Mbytes, locked:    0 /   0
[tb_pin] Currently allocated     0.00E+00 Mbytes, locked:    0 /   0

     iteration #109     ecut=    30.00 Ry     beta= 0.30
     Davidson diagonalization with overlap

---- Real-time Memory Report at c_bands before calling an iterative solver
          1135 MiB given to the printing process from OS
           758 MiB allocation reported by mallinfo(arena+hblkhd)
        239477 MiB available memory on the node where the printing process lives
     GPU memory used/free/total (MiB): 1832 / 38608 / 40440
------------------
     ethr =  5.56E-12,  avg # of iterations =  3.7

     negative rho (up, down):  0.000E+00 2.996E-03

     total cpu time spent up to now is       33.7 secs

     total energy              =    -506.80481217 Ry
     estimated scf accuracy    <          4.9E-09 Ry

     total magnetization       =    -0.00    -0.00     6.01 Bohr mag/cell
     absolute magnetization    =     7.00 Bohr mag/cell
[tb_dev] Currently allocated     0.00E+00 Mbytes, locked:    0 /   0
[tb_pin] Currently allocated     0.00E+00 Mbytes, locked:    0 /   0

     iteration #110     ecut=    30.00 Ry     beta= 0.30
     Davidson diagonalization with overlap

---- Real-time Memory Report at c_bands before calling an iterative solver
          1135 MiB given to the printing process from OS
           758 MiB allocation reported by mallinfo(arena+hblkhd)
        239477 MiB available memory on the node where the printing process lives
     GPU memory used/free/total (MiB): 1832 / 38608 / 40440
------------------
     ethr =  5.56E-12,  avg # of iterations = 16.0

     negative rho (up, down):  0.000E+00 2.996E-03

     total cpu time spent up to now is       34.1 secs

     total energy              =    -506.80483417 Ry
     estimated scf accuracy    <       0.00000137 Ry

     total magnetization       =    -0.00     0.00     6.01 Bohr mag/cell
     absolute magnetization    =     7.00 Bohr mag/cell
[tb_dev] Currently allocated     0.00E+00 Mbytes, locked:    0 /   0
[tb_pin] Currently allocated     0.00E+00 Mbytes, locked:    0 /   0

     iteration #111     ecut=    30.00 Ry     beta= 0.30
     Davidson diagonalization with overlap

---- Real-time Memory Report at c_bands before calling an iterative solver
          1135 MiB given to the printing process from OS
           758 MiB allocation reported by mallinfo(arena+hblkhd)
        239477 MiB available memory on the node where the printing process lives
     GPU memory used/free/total (MiB): 1832 / 38608 / 40440
------------------
     ethr =  5.56E-12,  avg # of iterations = 10.7

     negative rho (up, down):  0.000E+00 2.996E-03

     total cpu time spent up to now is       34.5 secs

     total energy              =    -506.80483412 Ry
     estimated scf accuracy    <       0.00000088 Ry

     total magnetization       =    -0.00    -0.00     6.01 Bohr mag/cell
     absolute magnetization    =     7.00 Bohr mag/cell
[tb_dev] Currently allocated     0.00E+00 Mbytes, locked:    0 /   0
[tb_pin] Currently allocated     0.00E+00 Mbytes, locked:    0 /   0

     iteration #112     ecut=    30.00 Ry     beta= 0.30
     Davidson diagonalization with overlap

---- Real-time Memory Report at c_bands before calling an iterative solver
          1135 MiB given to the printing process from OS
           758 MiB allocation reported by mallinfo(arena+hblkhd)
        239477 MiB available memory on the node where the printing process lives
     GPU memory used/free/total (MiB): 1832 / 38608 / 40440
------------------
     ethr =  5.56E-12,  avg # of iterations = 10.0

     negative rho (up, down):  0.000E+00 2.996E-03

     total cpu time spent up to now is       34.8 secs

     total energy              =    -506.80483423 Ry
     estimated scf accuracy    <       0.00000021 Ry

     total magnetization       =    -0.00    -0.00     6.01 Bohr mag/cell
     absolute magnetization    =     7.00 Bohr mag/cell
[tb_dev] Currently allocated     0.00E+00 Mbytes, locked:    0 /   0
[tb_pin] Currently allocated     0.00E+00 Mbytes, locked:    0 /   0

     iteration #113     ecut=    30.00 Ry     beta= 0.30
     Davidson diagonalization with overlap

---- Real-time Memory Report at c_bands before calling an iterative solver
          1135 MiB given to the printing process from OS
           758 MiB allocation reported by mallinfo(arena+hblkhd)
        239477 MiB available memory on the node where the printing process lives
     GPU memory used/free/total (MiB): 1832 / 38608 / 40440
------------------
     ethr =  5.56E-12,  avg # of iterations =  9.0

     negative rho (up, down):  0.000E+00 2.971E-03

     total cpu time spent up to now is       35.1 secs

     total energy              =    -506.80480348 Ry
     estimated scf accuracy    <       0.00000010 Ry

     total magnetization       =    -0.00    -0.00     6.01 Bohr mag/cell
     absolute magnetization    =     7.00 Bohr mag/cell
[tb_dev] Currently allocated     0.00E+00 Mbytes, locked:    0 /   0
[tb_pin] Currently allocated     0.00E+00 Mbytes, locked:    0 /   0

     iteration #114     ecut=    30.00 Ry     beta= 0.30
     Davidson diagonalization with overlap

---- Real-time Memory Report at c_bands before calling an iterative solver
          1135 MiB given to the printing process from OS
           758 MiB allocation reported by mallinfo(arena+hblkhd)
        239477 MiB available memory on the node where the printing process lives
     GPU memory used/free/total (MiB): 1832 / 38608 / 40440
------------------
     ethr =  5.56E-12,  avg # of iterations = 16.0

     negative rho (up, down):  0.000E+00 2.996E-03

     total cpu time spent up to now is       35.5 secs

     total energy              =    -506.80481253 Ry
     estimated scf accuracy    <       0.00000096 Ry

     total magnetization       =     0.00    -0.00     6.01 Bohr mag/cell
     absolute magnetization    =     7.00 Bohr mag/cell
[tb_dev] Currently allocated     0.00E+00 Mbytes, locked:    0 /   0
[tb_pin] Currently allocated     0.00E+00 Mbytes, locked:    0 /   0

     iteration #115     ecut=    30.00 Ry     beta= 0.30
     Davidson diagonalization with overlap

---- Real-time Memory Report at c_bands before calling an iterative solver
          1135 MiB given to the printing process from OS
           758 MiB allocation reported by mallinfo(arena+hblkhd)
        239477 MiB available memory on the node where the printing process lives
     GPU memory used/free/total (MiB): 1832 / 38608 / 40440
------------------
     ethr =  5.56E-12,  avg # of iterations = 15.7

     negative rho (up, down):  0.000E+00 2.996E-03

     total cpu time spent up to now is       35.9 secs

     total energy              =    -506.80480292 Ry
     estimated scf accuracy    <       0.00000007 Ry

     total magnetization       =    -0.00     0.00     6.01 Bohr mag/cell
     absolute magnetization    =     7.00 Bohr mag/cell
[tb_dev] Currently allocated     0.00E+00 Mbytes, locked:    0 /   0
[tb_pin] Currently allocated     0.00E+00 Mbytes, locked:    0 /   0

     iteration #116     ecut=    30.00 Ry     beta= 0.30
     Davidson diagonalization with overlap

---- Real-time Memory Report at c_bands before calling an iterative solver
          1135 MiB given to the printing process from OS
           758 MiB allocation reported by mallinfo(arena+hblkhd)
        239477 MiB available memory on the node where the printing process lives
     GPU memory used/free/total (MiB): 1832 / 38608 / 40440
------------------
     ethr =  5.56E-12,  avg # of iterations = 15.7

     negative rho (up, down):  0.000E+00 2.996E-03

     total cpu time spent up to now is       36.3 secs

     total energy              =    -506.80481213 Ry
     estimated scf accuracy    <       0.00000087 Ry

     total magnetization       =    -0.00     0.00     6.01 Bohr mag/cell
     absolute magnetization    =     7.00 Bohr mag/cell
[tb_dev] Currently allocated     0.00E+00 Mbytes, locked:    0 /   0
[tb_pin] Currently allocated     0.00E+00 Mbytes, locked:    0 /   0

     iteration #117     ecut=    30.00 Ry     beta= 0.30
     Davidson diagonalization with overlap

---- Real-time Memory Report at c_bands before calling an iterative solver
          1135 MiB given to the printing process from OS
           758 MiB allocation reported by mallinfo(arena+hblkhd)
        239477 MiB available memory on the node where the printing process lives
     GPU memory used/free/total (MiB): 1832 / 38608 / 40440
------------------
     ethr =  5.56E-12,  avg # of iterations = 16.0

     negative rho (up, down):  0.000E+00 2.996E-03

     total cpu time spent up to now is       36.7 secs

     total energy              =    -506.80483487 Ry
     estimated scf accuracy    <       0.00000012 Ry

     total magnetization       =     0.00    -0.00     6.01 Bohr mag/cell
     absolute magnetization    =     7.00 Bohr mag/cell
[tb_dev] Currently allocated     0.00E+00 Mbytes, locked:    0 /   0
[tb_pin] Currently allocated     0.00E+00 Mbytes, locked:    0 /   0

     iteration #118     ecut=    30.00 Ry     beta= 0.30
     Davidson diagonalization with overlap

---- Real-time Memory Report at c_bands before calling an iterative solver
          1135 MiB given to the printing process from OS
           758 MiB allocation reported by mallinfo(arena+hblkhd)
        239477 MiB available memory on the node where the printing process lives
     GPU memory used/free/total (MiB): 1832 / 38608 / 40440
------------------
     ethr =  5.56E-12,  avg # of iterations =  2.3

     negative rho (up, down):  0.000E+00 2.996E-03

     total cpu time spent up to now is       36.9 secs

     total energy              =    -506.80483476 Ry
     estimated scf accuracy    <       0.00000010 Ry

     total magnetization       =    -0.00     0.00     6.01 Bohr mag/cell
     absolute magnetization    =     7.00 Bohr mag/cell
[tb_dev] Currently allocated     0.00E+00 Mbytes, locked:    0 /   0
[tb_pin] Currently allocated     0.00E+00 Mbytes, locked:    0 /   0

     iteration #119     ecut=    30.00 Ry     beta= 0.30
     Davidson diagonalization with overlap

---- Real-time Memory Report at c_bands before calling an iterative solver
          1135 MiB given to the printing process from OS
           758 MiB allocation reported by mallinfo(arena+hblkhd)
        239476 MiB available memory on the node where the printing process lives
     GPU memory used/free/total (MiB): 1832 / 38608 / 40440
------------------
     ethr =  5.56E-12,  avg # of iterations =  6.0

     negative rho (up, down):  0.000E+00 2.996E-03

     total cpu time spent up to now is       37.2 secs

     total energy              =    -506.80483429 Ry
     estimated scf accuracy    <       0.00000023 Ry

     total magnetization       =    -0.00     0.00     6.01 Bohr mag/cell
     absolute magnetization    =     7.00 Bohr mag/cell
[tb_dev] Currently allocated     0.00E+00 Mbytes, locked:    0 /   0
[tb_pin] Currently allocated     0.00E+00 Mbytes, locked:    0 /   0

     iteration #120     ecut=    30.00 Ry     beta= 0.30
     Davidson diagonalization with overlap

---- Real-time Memory Report at c_bands before calling an iterative solver
          1135 MiB given to the printing process from OS
           758 MiB allocation reported by mallinfo(arena+hblkhd)
        239476 MiB available memory on the node where the printing process lives
     GPU memory used/free/total (MiB): 1832 / 38608 / 40440
------------------
     ethr =  5.56E-12,  avg # of iterations =  6.7

     negative rho (up, down):  0.000E+00 2.996E-03

     total cpu time spent up to now is       37.5 secs

     total energy              =    -506.80483467 Ry
     estimated scf accuracy    <       0.00000026 Ry

     total magnetization       =     0.00     0.00     6.01 Bohr mag/cell
     absolute magnetization    =     7.00 Bohr mag/cell
[tb_dev] Currently allocated     0.00E+00 Mbytes, locked:    0 /   0
[tb_pin] Currently allocated     0.00E+00 Mbytes, locked:    0 /   0

     iteration #121     ecut=    30.00 Ry     beta= 0.30
     Davidson diagonalization with overlap

---- Real-time Memory Report at c_bands before calling an iterative solver
          1135 MiB given to the printing process from OS
           758 MiB allocation reported by mallinfo(arena+hblkhd)
        239476 MiB available memory on the node where the printing process lives
     GPU memory used/free/total (MiB): 1832 / 38608 / 40440
------------------
     ethr =  5.56E-12,  avg # of iterations =  4.7

     negative rho (up, down):  0.000E+00 2.996E-03

     total cpu time spent up to now is       37.7 secs

     total energy              =    -506.80483464 Ry
     estimated scf accuracy    <       0.00000021 Ry

     total magnetization       =     0.00     0.00     6.01 Bohr mag/cell
     absolute magnetization    =     7.00 Bohr mag/cell
[tb_dev] Currently allocated     0.00E+00 Mbytes, locked:    0 /   0
[tb_pin] Currently allocated     0.00E+00 Mbytes, locked:    0 /   0

     iteration #122     ecut=    30.00 Ry     beta= 0.30
     Davidson diagonalization with overlap

---- Real-time Memory Report at c_bands before calling an iterative solver
          1135 MiB given to the printing process from OS
           758 MiB allocation reported by mallinfo(arena+hblkhd)
        239476 MiB available memory on the node where the printing process lives
     GPU memory used/free/total (MiB): 1832 / 38608 / 40440
------------------
     ethr =  5.56E-12,  avg # of iterations =  4.3

     negative rho (up, down):  0.000E+00 2.996E-03

     total cpu time spent up to now is       38.0 secs

     total energy              =    -506.80483393 Ry
     estimated scf accuracy    <       0.00000016 Ry

     total magnetization       =    -0.00     0.00     6.01 Bohr mag/cell
     absolute magnetization    =     7.00 Bohr mag/cell
[tb_dev] Currently allocated     0.00E+00 Mbytes, locked:    0 /   0
[tb_pin] Currently allocated     0.00E+00 Mbytes, locked:    0 /   0

     iteration #123     ecut=    30.00 Ry     beta= 0.30
     Davidson diagonalization with overlap

---- Real-time Memory Report at c_bands before calling an iterative solver
          1135 MiB given to the printing process from OS
           758 MiB allocation reported by mallinfo(arena+hblkhd)
        239476 MiB available memory on the node where the printing process lives
     GPU memory used/free/total (MiB): 1832 / 38608 / 40440
------------------
     ethr =  5.56E-12,  avg # of iterations = 11.0

     negative rho (up, down):  0.000E+00 2.996E-03

     total cpu time spent up to now is       38.3 secs

     total energy              =    -506.80483436 Ry
     estimated scf accuracy    <       0.00000015 Ry

     total magnetization       =    -0.00     0.00     6.01 Bohr mag/cell
     absolute magnetization    =     7.00 Bohr mag/cell
[tb_dev] Currently allocated     0.00E+00 Mbytes, locked:    0 /   0
[tb_pin] Currently allocated     0.00E+00 Mbytes, locked:    0 /   0

     iteration #124     ecut=    30.00 Ry     beta= 0.30
     Davidson diagonalization with overlap

---- Real-time Memory Report at c_bands before calling an iterative solver
          1135 MiB given to the printing process from OS
           758 MiB allocation reported by mallinfo(arena+hblkhd)
        239476 MiB available memory on the node where the printing process lives
     GPU memory used/free/total (MiB): 1832 / 38608 / 40440
------------------
     ethr =  5.56E-12,  avg # of iterations = 11.0

     negative rho (up, down):  0.000E+00 2.996E-03

     total cpu time spent up to now is       38.6 secs

     total energy              =    -506.80483404 Ry
     estimated scf accuracy    <       0.00000011 Ry

     total magnetization       =    -0.00     0.00     6.01 Bohr mag/cell
     absolute magnetization    =     7.00 Bohr mag/cell
[tb_dev] Currently allocated     0.00E+00 Mbytes, locked:    0 /   0
[tb_pin] Currently allocated     0.00E+00 Mbytes, locked:    0 /   0

     iteration #125     ecut=    30.00 Ry     beta= 0.30
     Davidson diagonalization with overlap

---- Real-time Memory Report at c_bands before calling an iterative solver
          1135 MiB given to the printing process from OS
           758 MiB allocation reported by mallinfo(arena+hblkhd)
        239476 MiB available memory on the node where the printing process lives
     GPU memory used/free/total (MiB): 1832 / 38608 / 40440
------------------
     ethr =  5.56E-12,  avg # of iterations =  5.0

     negative rho (up, down):  0.000E+00 2.971E-03

     total cpu time spent up to now is       38.8 secs

     total energy              =    -506.80483409 Ry
     estimated scf accuracy    <       0.00000010 Ry

     total magnetization       =     0.00     0.00     6.01 Bohr mag/cell
     absolute magnetization    =     7.00 Bohr mag/cell
[tb_dev] Currently allocated     0.00E+00 Mbytes, locked:    0 /   0
[tb_pin] Currently allocated     0.00E+00 Mbytes, locked:    0 /   0

     iteration #126     ecut=    30.00 Ry     beta= 0.30
     Davidson diagonalization with overlap

---- Real-time Memory Report at c_bands before calling an iterative solver
          1135 MiB given to the printing process from OS
           758 MiB allocation reported by mallinfo(arena+hblkhd)
        239476 MiB available memory on the node where the printing process lives
     GPU memory used/free/total (MiB): 1832 / 38608 / 40440
------------------
     ethr =  5.56E-12,  avg # of iterations =  6.3

     negative rho (up, down):  0.000E+00 2.971E-03

     total cpu time spent up to now is       39.1 secs

     total energy              =    -506.80483357 Ry
     estimated scf accuracy    <          8.1E-09 Ry

     total magnetization       =     0.00    -0.00     6.01 Bohr mag/cell
     absolute magnetization    =     7.00 Bohr mag/cell
[tb_dev] Currently allocated     0.00E+00 Mbytes, locked:    0 /   0
[tb_pin] Currently allocated     0.00E+00 Mbytes, locked:    0 /   0

     iteration #127     ecut=    30.00 Ry     beta= 0.30
     Davidson diagonalization with overlap

---- Real-time Memory Report at c_bands before calling an iterative solver
          1135 MiB given to the printing process from OS
           758 MiB allocation reported by mallinfo(arena+hblkhd)
        239476 MiB available memory on the node where the printing process lives
     GPU memory used/free/total (MiB): 1832 / 38608 / 40440
------------------
     ethr =  5.56E-12,  avg # of iterations =  4.3

     negative rho (up, down):  0.000E+00 2.971E-03

     total cpu time spent up to now is       39.4 secs

     total energy              =    -506.80483347 Ry
     estimated scf accuracy    <          8.1E-09 Ry

     total magnetization       =     0.00    -0.00     6.01 Bohr mag/cell
     absolute magnetization    =     7.00 Bohr mag/cell
[tb_dev] Currently allocated     0.00E+00 Mbytes, locked:    0 /   0
[tb_pin] Currently allocated     0.00E+00 Mbytes, locked:    0 /   0

     iteration #128     ecut=    30.00 Ry     beta= 0.30
     Davidson diagonalization with overlap

---- Real-time Memory Report at c_bands before calling an iterative solver
          1135 MiB given to the printing process from OS
           758 MiB allocation reported by mallinfo(arena+hblkhd)
        239476 MiB available memory on the node where the printing process lives
     GPU memory used/free/total (MiB): 1832 / 38608 / 40440
------------------
     ethr =  5.56E-12,  avg # of iterations =  3.7

     negative rho (up, down):  0.000E+00 2.996E-03

     total cpu time spent up to now is       39.6 secs

     total energy              =    -506.80483461 Ry
     estimated scf accuracy    <          7.7E-09 Ry

     total magnetization       =    -0.00     0.00     6.01 Bohr mag/cell
     absolute magnetization    =     7.00 Bohr mag/cell
[tb_dev] Currently allocated     0.00E+00 Mbytes, locked:    0 /   0
[tb_pin] Currently allocated     0.00E+00 Mbytes, locked:    0 /   0

     iteration #129     ecut=    30.00 Ry     beta= 0.30
     Davidson diagonalization with overlap

---- Real-time Memory Report at c_bands before calling an iterative solver
          1135 MiB given to the printing process from OS
           758 MiB allocation reported by mallinfo(arena+hblkhd)
        239476 MiB available memory on the node where the printing process lives
     GPU memory used/free/total (MiB): 1832 / 38608 / 40440
------------------
     ethr =  5.56E-12,  avg # of iterations =  6.3

     negative rho (up, down):  0.000E+00 2.996E-03

     total cpu time spent up to now is       39.9 secs

     total energy              =    -506.80483503 Ry
     estimated scf accuracy    <          8.0E-09 Ry

     total magnetization       =    -0.00     0.00     6.01 Bohr mag/cell
     absolute magnetization    =     7.00 Bohr mag/cell
[tb_dev] Currently allocated     0.00E+00 Mbytes, locked:    0 /   0
[tb_pin] Currently allocated     0.00E+00 Mbytes, locked:    0 /   0

     iteration #130     ecut=    30.00 Ry     beta= 0.30
     Davidson diagonalization with overlap

---- Real-time Memory Report at c_bands before calling an iterative solver
          1135 MiB given to the printing process from OS
           758 MiB allocation reported by mallinfo(arena+hblkhd)
        239476 MiB available memory on the node where the printing process lives
     GPU memory used/free/total (MiB): 1832 / 38608 / 40440
------------------
     ethr =  5.56E-12,  avg # of iterations =  5.3

     negative rho (up, down):  0.000E+00 2.996E-03

     total cpu time spent up to now is       40.1 secs

     total energy              =    -506.80483382 Ry
     estimated scf accuracy    <          6.9E-09 Ry

     total magnetization       =    -0.00     0.00     6.01 Bohr mag/cell
     absolute magnetization    =     7.00 Bohr mag/cell
[tb_dev] Currently allocated     0.00E+00 Mbytes, locked:    0 /   0
[tb_pin] Currently allocated     0.00E+00 Mbytes, locked:    0 /   0

     iteration #131     ecut=    30.00 Ry     beta= 0.30
     Davidson diagonalization with overlap

---- Real-time Memory Report at c_bands before calling an iterative solver
          1135 MiB given to the printing process from OS
           758 MiB allocation reported by mallinfo(arena+hblkhd)
        239476 MiB available memory on the node where the printing process lives
     GPU memory used/free/total (MiB): 1832 / 38608 / 40440
------------------
     ethr =  5.56E-12,  avg # of iterations = 10.0

     negative rho (up, down):  0.000E+00 2.996E-03

     total cpu time spent up to now is       40.4 secs

     total energy              =    -506.80483397 Ry
     estimated scf accuracy    <          5.5E-09 Ry

     total magnetization       =     0.00     0.00     6.01 Bohr mag/cell
     absolute magnetization    =     7.00 Bohr mag/cell
[tb_dev] Currently allocated     0.00E+00 Mbytes, locked:    0 /   0
[tb_pin] Currently allocated     0.00E+00 Mbytes, locked:    0 /   0

     iteration #132     ecut=    30.00 Ry     beta= 0.30
     Davidson diagonalization with overlap

---- Real-time Memory Report at c_bands before calling an iterative solver
          1135 MiB given to the printing process from OS
           758 MiB allocation reported by mallinfo(arena+hblkhd)
        239476 MiB available memory on the node where the printing process lives
     GPU memory used/free/total (MiB): 1832 / 38608 / 40440
------------------
     ethr =  5.56E-12,  avg # of iterations =  2.0

     negative rho (up, down):  0.000E+00 2.996E-03

     total cpu time spent up to now is       40.6 secs

     total energy              =    -506.80483229 Ry
     estimated scf accuracy    <          5.6E-09 Ry

     total magnetization       =     0.00    -0.00     6.01 Bohr mag/cell
     absolute magnetization    =     7.00 Bohr mag/cell
[tb_dev] Currently allocated     0.00E+00 Mbytes, locked:    0 /   0
[tb_pin] Currently allocated     0.00E+00 Mbytes, locked:    0 /   0

     iteration #133     ecut=    30.00 Ry     beta= 0.30
     Davidson diagonalization with overlap

---- Real-time Memory Report at c_bands before calling an iterative solver
          1135 MiB given to the printing process from OS
           758 MiB allocation reported by mallinfo(arena+hblkhd)
        239476 MiB available memory on the node where the printing process lives
     GPU memory used/free/total (MiB): 1832 / 38608 / 40440
------------------
     ethr =  5.56E-12,  avg # of iterations = 14.0

     negative rho (up, down):  0.000E+00 2.996E-03

     total cpu time spent up to now is       41.0 secs

     total energy              =    -506.80483161 Ry
     estimated scf accuracy    <       0.00000002 Ry

     total magnetization       =    -0.00     0.00     6.01 Bohr mag/cell
     absolute magnetization    =     7.00 Bohr mag/cell
[tb_dev] Currently allocated     0.00E+00 Mbytes, locked:    0 /   0
[tb_pin] Currently allocated     0.00E+00 Mbytes, locked:    0 /   0

     iteration #134     ecut=    30.00 Ry     beta= 0.30
     Davidson diagonalization with overlap

---- Real-time Memory Report at c_bands before calling an iterative solver
          1135 MiB given to the printing process from OS
           758 MiB allocation reported by mallinfo(arena+hblkhd)
        239476 MiB available memory on the node where the printing process lives
     GPU memory used/free/total (MiB): 1832 / 38608 / 40440
------------------
     ethr =  5.56E-12,  avg # of iterations = 14.3

     negative rho (up, down):  0.000E+00 2.971E-03

     total cpu time spent up to now is       41.3 secs

     total energy              =    -506.80480325 Ry
     estimated scf accuracy    <       0.00000001 Ry

     total magnetization       =    -0.00     0.00     6.01 Bohr mag/cell
     absolute magnetization    =     7.00 Bohr mag/cell
[tb_dev] Currently allocated     0.00E+00 Mbytes, locked:    0 /   0
[tb_pin] Currently allocated     0.00E+00 Mbytes, locked:    0 /   0

     iteration #135     ecut=    30.00 Ry     beta= 0.30
     Davidson diagonalization with overlap

---- Real-time Memory Report at c_bands before calling an iterative solver
          1135 MiB given to the printing process from OS
           758 MiB allocation reported by mallinfo(arena+hblkhd)
        239476 MiB available memory on the node where the printing process lives
     GPU memory used/free/total (MiB): 1832 / 38608 / 40440
------------------
     ethr =  5.56E-12,  avg # of iterations = 16.0

     negative rho (up, down):  0.000E+00 2.971E-03

     total cpu time spent up to now is       41.7 secs

     total energy              =    -506.80482560 Ry
     estimated scf accuracy    <       0.00000164 Ry

     total magnetization       =    -0.00     0.00     6.01 Bohr mag/cell
     absolute magnetization    =     7.00 Bohr mag/cell
[tb_dev] Currently allocated     0.00E+00 Mbytes, locked:    0 /   0
[tb_pin] Currently allocated     0.00E+00 Mbytes, locked:    0 /   0

     iteration #136     ecut=    30.00 Ry     beta= 0.30
     Davidson diagonalization with overlap

---- Real-time Memory Report at c_bands before calling an iterative solver
          1135 MiB given to the printing process from OS
           758 MiB allocation reported by mallinfo(arena+hblkhd)
        239476 MiB available memory on the node where the printing process lives
     GPU memory used/free/total (MiB): 1832 / 38608 / 40440
------------------
     ethr =  5.56E-12,  avg # of iterations =  6.0

     negative rho (up, down):  0.000E+00 2.971E-03

     total cpu time spent up to now is       42.0 secs

     total energy              =    -506.80482541 Ry
     estimated scf accuracy    <       0.00000140 Ry

     total magnetization       =    -0.00     0.00     6.01 Bohr mag/cell
     absolute magnetization    =     7.00 Bohr mag/cell
[tb_dev] Currently allocated     0.00E+00 Mbytes, locked:    0 /   0
[tb_pin] Currently allocated     0.00E+00 Mbytes, locked:    0 /   0

     iteration #137     ecut=    30.00 Ry     beta= 0.30
     Davidson diagonalization with overlap

---- Real-time Memory Report at c_bands before calling an iterative solver
          1135 MiB given to the printing process from OS
           758 MiB allocation reported by mallinfo(arena+hblkhd)
        239476 MiB available memory on the node where the printing process lives
     GPU memory used/free/total (MiB): 1832 / 38608 / 40440
------------------
     ethr =  5.56E-12,  avg # of iterations =  5.0

     negative rho (up, down):  0.000E+00 2.971E-03

     total cpu time spent up to now is       42.3 secs

     total energy              =    -506.80482561 Ry
     estimated scf accuracy    <       0.00000180 Ry

     total magnetization       =    -0.00     0.00     6.01 Bohr mag/cell
     absolute magnetization    =     7.00 Bohr mag/cell
[tb_dev] Currently allocated     0.00E+00 Mbytes, locked:    0 /   0
[tb_pin] Currently allocated     0.00E+00 Mbytes, locked:    0 /   0

     iteration #138     ecut=    30.00 Ry     beta= 0.30
     Davidson diagonalization with overlap

---- Real-time Memory Report at c_bands before calling an iterative solver
          1135 MiB given to the printing process from OS
           758 MiB allocation reported by mallinfo(arena+hblkhd)
        239476 MiB available memory on the node where the printing process lives
     GPU memory used/free/total (MiB): 1832 / 38608 / 40440
------------------
     ethr =  5.56E-12,  avg # of iterations =  8.3

     negative rho (up, down):  0.000E+00 2.971E-03

     total cpu time spent up to now is       42.6 secs

     total energy              =    -506.80482557 Ry
     estimated scf accuracy    <       0.00000199 Ry

     total magnetization       =    -0.00    -0.00     6.01 Bohr mag/cell
     absolute magnetization    =     7.00 Bohr mag/cell
[tb_dev] Currently allocated     0.00E+00 Mbytes, locked:    0 /   0
[tb_pin] Currently allocated     0.00E+00 Mbytes, locked:    0 /   0

     iteration #139     ecut=    30.00 Ry     beta= 0.30
     Davidson diagonalization with overlap

---- Real-time Memory Report at c_bands before calling an iterative solver
          1135 MiB given to the printing process from OS
           758 MiB allocation reported by mallinfo(arena+hblkhd)
        239475 MiB available memory on the node where the printing process lives
     GPU memory used/free/total (MiB): 1832 / 38608 / 40440
------------------
     ethr =  5.56E-12,  avg # of iterations =  4.3

     negative rho (up, down):  0.000E+00 2.996E-03

     total cpu time spent up to now is       42.8 secs

     total energy              =    -506.80481312 Ry
     estimated scf accuracy    <       0.00000195 Ry

     total magnetization       =     0.00     0.00     6.01 Bohr mag/cell
     absolute magnetization    =     7.00 Bohr mag/cell
[tb_dev] Currently allocated     0.00E+00 Mbytes, locked:    0 /   0
[tb_pin] Currently allocated     0.00E+00 Mbytes, locked:    0 /   0

     iteration #140     ecut=    30.00 Ry     beta= 0.30
     Davidson diagonalization with overlap

---- Real-time Memory Report at c_bands before calling an iterative solver
          1135 MiB given to the printing process from OS
           758 MiB allocation reported by mallinfo(arena+hblkhd)
        239475 MiB available memory on the node where the printing process lives
     GPU memory used/free/total (MiB): 1832 / 38608 / 40440
------------------
     ethr =  5.56E-12,  avg # of iterations = 15.7

     negative rho (up, down):  0.000E+00 2.996E-03

     total cpu time spent up to now is       43.2 secs

     total energy              =    -506.80483354 Ry
     estimated scf accuracy    <       0.00000002 Ry

     total magnetization       =    -0.00    -0.00     6.01 Bohr mag/cell
     absolute magnetization    =     7.00 Bohr mag/cell
[tb_dev] Currently allocated     0.00E+00 Mbytes, locked:    0 /   0
[tb_pin] Currently allocated     0.00E+00 Mbytes, locked:    0 /   0

     iteration #141     ecut=    30.00 Ry     beta= 0.30
     Davidson diagonalization with overlap

---- Real-time Memory Report at c_bands before calling an iterative solver
          1135 MiB given to the printing process from OS
           758 MiB allocation reported by mallinfo(arena+hblkhd)
        239475 MiB available memory on the node where the printing process lives
     GPU memory used/free/total (MiB): 1832 / 38608 / 40440
------------------
     ethr =  5.56E-12,  avg # of iterations = 11.0

     negative rho (up, down):  0.000E+00 2.996E-03

     total cpu time spent up to now is       43.5 secs

     total energy              =    -506.80483441 Ry
     estimated scf accuracy    <       0.00000003 Ry

     total magnetization       =     0.00     0.00     6.01 Bohr mag/cell
     absolute magnetization    =     7.00 Bohr mag/cell
[tb_dev] Currently allocated     0.00E+00 Mbytes, locked:    0 /   0
[tb_pin] Currently allocated     0.00E+00 Mbytes, locked:    0 /   0

     iteration #142     ecut=    30.00 Ry     beta= 0.30
     Davidson diagonalization with overlap

---- Real-time Memory Report at c_bands before calling an iterative solver
          1135 MiB given to the printing process from OS
           758 MiB allocation reported by mallinfo(arena+hblkhd)
        239475 MiB available memory on the node where the printing process lives
     GPU memory used/free/total (MiB): 1832 / 38608 / 40440
------------------
     ethr =  5.56E-12,  avg # of iterations = 11.0

     negative rho (up, down):  0.000E+00 2.996E-03

     total cpu time spent up to now is       43.8 secs

     total energy              =    -506.80483460 Ry
     estimated scf accuracy    <       0.00000004 Ry

     total magnetization       =    -0.00    -0.00     6.01 Bohr mag/cell
     absolute magnetization    =     7.00 Bohr mag/cell
[tb_dev] Currently allocated     0.00E+00 Mbytes, locked:    0 /   0
[tb_pin] Currently allocated     0.00E+00 Mbytes, locked:    0 /   0

     iteration #143     ecut=    30.00 Ry     beta= 0.30
     Davidson diagonalization with overlap

---- Real-time Memory Report at c_bands before calling an iterative solver
          1135 MiB given to the printing process from OS
           758 MiB allocation reported by mallinfo(arena+hblkhd)
        239475 MiB available memory on the node where the printing process lives
     GPU memory used/free/total (MiB): 1832 / 38608 / 40440
------------------
     ethr =  5.56E-12,  avg # of iterations =  6.0

     negative rho (up, down):  0.000E+00 2.971E-03

     total cpu time spent up to now is       44.1 secs

     total energy              =    -506.80483495 Ry
     estimated scf accuracy    <       0.00000005 Ry

     total magnetization       =    -0.00     0.00     6.01 Bohr mag/cell
     absolute magnetization    =     7.00 Bohr mag/cell
[tb_dev] Currently allocated     0.00E+00 Mbytes, locked:    0 /   0
[tb_pin] Currently allocated     0.00E+00 Mbytes, locked:    0 /   0

     iteration #144     ecut=    30.00 Ry     beta= 0.30
     Davidson diagonalization with overlap

---- Real-time Memory Report at c_bands before calling an iterative solver
          1135 MiB given to the printing process from OS
           758 MiB allocation reported by mallinfo(arena+hblkhd)
        239475 MiB available memory on the node where the printing process lives
     GPU memory used/free/total (MiB): 1832 / 38608 / 40440
------------------
     ethr =  5.56E-12,  avg # of iterations =  5.0

     negative rho (up, down):  0.000E+00 2.971E-03

     total cpu time spent up to now is       44.3 secs

     total energy              =    -506.80483467 Ry
     estimated scf accuracy    <       0.00000010 Ry

     total magnetization       =     0.00    -0.00     6.01 Bohr mag/cell
     absolute magnetization    =     7.00 Bohr mag/cell
[tb_dev] Currently allocated     0.00E+00 Mbytes, locked:    0 /   0
[tb_pin] Currently allocated     0.00E+00 Mbytes, locked:    0 /   0

     iteration #145     ecut=    30.00 Ry     beta= 0.30
     Davidson diagonalization with overlap

---- Real-time Memory Report at c_bands before calling an iterative solver
          1135 MiB given to the printing process from OS
           758 MiB allocation reported by mallinfo(arena+hblkhd)
        239475 MiB available memory on the node where the printing process lives
     GPU memory used/free/total (MiB): 1832 / 38608 / 40440
------------------
     ethr =  5.56E-12,  avg # of iterations =  4.0

     negative rho (up, down):  0.000E+00 2.996E-03

     total cpu time spent up to now is       44.6 secs

     total energy              =    -506.80483508 Ry
     estimated scf accuracy    <       0.00000013 Ry

     total magnetization       =     0.00     0.00     6.01 Bohr mag/cell
     absolute magnetization    =     7.00 Bohr mag/cell
[tb_dev] Currently allocated     0.00E+00 Mbytes, locked:    0 /   0
[tb_pin] Currently allocated     0.00E+00 Mbytes, locked:    0 /   0

     iteration #146     ecut=    30.00 Ry     beta= 0.30
     Davidson diagonalization with overlap

---- Real-time Memory Report at c_bands before calling an iterative solver
          1135 MiB given to the printing process from OS
           758 MiB allocation reported by mallinfo(arena+hblkhd)
        239475 MiB available memory on the node where the printing process lives
     GPU memory used/free/total (MiB): 1832 / 38608 / 40440
------------------
     ethr =  5.56E-12,  avg # of iterations =  5.3

     negative rho (up, down):  0.000E+00 2.996E-03

     total cpu time spent up to now is       44.8 secs

     total energy              =    -506.80483316 Ry
     estimated scf accuracy    <       0.00000013 Ry

     total magnetization       =     0.00     0.00     6.01 Bohr mag/cell
     absolute magnetization    =     7.00 Bohr mag/cell
[tb_dev] Currently allocated     0.00E+00 Mbytes, locked:    0 /   0
[tb_pin] Currently allocated     0.00E+00 Mbytes, locked:    0 /   0

     iteration #147     ecut=    30.00 Ry     beta= 0.30
     Davidson diagonalization with overlap

---- Real-time Memory Report at c_bands before calling an iterative solver
          1135 MiB given to the printing process from OS
           758 MiB allocation reported by mallinfo(arena+hblkhd)
        239475 MiB available memory on the node where the printing process lives
     GPU memory used/free/total (MiB): 1832 / 38608 / 40440
------------------
     ethr =  5.56E-12,  avg # of iterations = 13.0

     negative rho (up, down):  0.000E+00 2.996E-03

     total cpu time spent up to now is       45.2 secs

     total energy              =    -506.80483428 Ry
     estimated scf accuracy    <       0.00000002 Ry

     total magnetization       =     0.00    -0.00     6.01 Bohr mag/cell
     absolute magnetization    =     7.00 Bohr mag/cell
[tb_dev] Currently allocated     0.00E+00 Mbytes, locked:    0 /   0
[tb_pin] Currently allocated     0.00E+00 Mbytes, locked:    0 /   0

     iteration #148     ecut=    30.00 Ry     beta= 0.30
     Davidson diagonalization with overlap

---- Real-time Memory Report at c_bands before calling an iterative solver
          1135 MiB given to the printing process from OS
           758 MiB allocation reported by mallinfo(arena+hblkhd)
        239475 MiB available memory on the node where the printing process lives
     GPU memory used/free/total (MiB): 1832 / 38608 / 40440
------------------
     ethr =  5.56E-12,  avg # of iterations =  6.0

     negative rho (up, down):  0.000E+00 2.996E-03

     total cpu time spent up to now is       45.5 secs

     total energy              =    -506.80483463 Ry
     estimated scf accuracy    <          1.0E-08 Ry

     total magnetization       =     0.00     0.00     6.01 Bohr mag/cell
     absolute magnetization    =     7.00 Bohr mag/cell
[tb_dev] Currently allocated     0.00E+00 Mbytes, locked:    0 /   0
[tb_pin] Currently allocated     0.00E+00 Mbytes, locked:    0 /   0

     iteration #149     ecut=    30.00 Ry     beta= 0.30
     Davidson diagonalization with overlap

---- Real-time Memory Report at c_bands before calling an iterative solver
          1135 MiB given to the printing process from OS
           758 MiB allocation reported by mallinfo(arena+hblkhd)
        239475 MiB available memory on the node where the printing process lives
     GPU memory used/free/total (MiB): 1832 / 38608 / 40440
------------------
     ethr =  5.56E-12,  avg # of iterations =  5.3

     negative rho (up, down):  0.000E+00 2.996E-03

     total cpu time spent up to now is       45.7 secs

     total energy              =    -506.80483463 Ry
     estimated scf accuracy    <          3.8E-09 Ry

     total magnetization       =    -0.00     0.00     6.01 Bohr mag/cell
     absolute magnetization    =     7.00 Bohr mag/cell
[tb_dev] Currently allocated     0.00E+00 Mbytes, locked:    0 /   0
[tb_pin] Currently allocated     0.00E+00 Mbytes, locked:    0 /   0

     iteration #150     ecut=    30.00 Ry     beta= 0.30
     Davidson diagonalization with overlap

---- Real-time Memory Report at c_bands before calling an iterative solver
          1135 MiB given to the printing process from OS
           758 MiB allocation reported by mallinfo(arena+hblkhd)
        239475 MiB available memory on the node where the printing process lives
     GPU memory used/free/total (MiB): 1832 / 38608 / 40440
------------------
     ethr =  5.36E-12,  avg # of iterations =  5.7

     negative rho (up, down):  0.000E+00 2.971E-03

     total cpu time spent up to now is       46.0 secs

     total energy              =    -506.80483355 Ry
     estimated scf accuracy    <          3.7E-09 Ry

     total magnetization       =     0.00    -0.00     6.01 Bohr mag/cell
     absolute magnetization    =     7.00 Bohr mag/cell
[tb_dev] Currently allocated     0.00E+00 Mbytes, locked:    0 /   0
[tb_pin] Currently allocated     0.00E+00 Mbytes, locked:    0 /   0

     iteration #151     ecut=    30.00 Ry     beta= 0.30
     Davidson diagonalization with overlap

---- Real-time Memory Report at c_bands before calling an iterative solver
          1135 MiB given to the printing process from OS
           758 MiB allocation reported by mallinfo(arena+hblkhd)
        239475 MiB available memory on the node where the printing process lives
     GPU memory used/free/total (MiB): 1832 / 38608 / 40440
------------------
     ethr =  5.28E-12,  avg # of iterations = 10.3

     negative rho (up, down):  0.000E+00 2.971E-03

     total cpu time spent up to now is       46.3 secs

     total energy              =    -506.80483332 Ry
     estimated scf accuracy    <          4.3E-09 Ry

     total magnetization       =     0.00    -0.00     6.01 Bohr mag/cell
     absolute magnetization    =     7.00 Bohr mag/cell
[tb_dev] Currently allocated     0.00E+00 Mbytes, locked:    0 /   0
[tb_pin] Currently allocated     0.00E+00 Mbytes, locked:    0 /   0

     iteration #152     ecut=    30.00 Ry     beta= 0.30
     Davidson diagonalization with overlap

---- Real-time Memory Report at c_bands before calling an iterative solver
          1135 MiB given to the printing process from OS
           758 MiB allocation reported by mallinfo(arena+hblkhd)
        239475 MiB available memory on the node where the printing process lives
     GPU memory used/free/total (MiB): 1832 / 38608 / 40440
------------------
     ethr =  5.28E-12,  avg # of iterations =  5.3

     negative rho (up, down):  0.000E+00 2.996E-03

     total cpu time spent up to now is       46.5 secs

     total energy              =    -506.80483403 Ry
     estimated scf accuracy    <          5.0E-09 Ry

     total magnetization       =    -0.00     0.00     6.01 Bohr mag/cell
     absolute magnetization    =     7.00 Bohr mag/cell
[tb_dev] Currently allocated     0.00E+00 Mbytes, locked:    0 /   0
[tb_pin] Currently allocated     0.00E+00 Mbytes, locked:    0 /   0

     iteration #153     ecut=    30.00 Ry     beta= 0.30
     Davidson diagonalization with overlap

---- Real-time Memory Report at c_bands before calling an iterative solver
          1135 MiB given to the printing process from OS
           758 MiB allocation reported by mallinfo(arena+hblkhd)
        239475 MiB available memory on the node where the printing process lives
     GPU memory used/free/total (MiB): 1832 / 38608 / 40440
------------------
     ethr =  5.28E-12,  avg # of iterations = 10.3

     negative rho (up, down):  0.000E+00 2.996E-03

     total cpu time spent up to now is       46.8 secs

     total energy              =    -506.80483439 Ry
     estimated scf accuracy    <          3.6E-09 Ry

     total magnetization       =    -0.00    -0.00     6.01 Bohr mag/cell
     absolute magnetization    =     7.00 Bohr mag/cell
[tb_dev] Currently allocated     0.00E+00 Mbytes, locked:    0 /   0
[tb_pin] Currently allocated     0.00E+00 Mbytes, locked:    0 /   0

     iteration #154     ecut=    30.00 Ry     beta= 0.30
     Davidson diagonalization with overlap

---- Real-time Memory Report at c_bands before calling an iterative solver
          1135 MiB given to the printing process from OS
           758 MiB allocation reported by mallinfo(arena+hblkhd)
        239474 MiB available memory on the node where the printing process lives
     GPU memory used/free/total (MiB): 1832 / 38608 / 40440
------------------
     ethr =  5.18E-12,  avg # of iterations =  5.7

     negative rho (up, down):  0.000E+00 2.996E-03

     total cpu time spent up to now is       47.1 secs

     total energy              =    -506.80483388 Ry
     estimated scf accuracy    <          4.0E-09 Ry

     total magnetization       =     0.00     0.00     6.01 Bohr mag/cell
     absolute magnetization    =     7.00 Bohr mag/cell
[tb_dev] Currently allocated     0.00E+00 Mbytes, locked:    0 /   0
[tb_pin] Currently allocated     0.00E+00 Mbytes, locked:    0 /   0

     iteration #155     ecut=    30.00 Ry     beta= 0.30
     Davidson diagonalization with overlap

---- Real-time Memory Report at c_bands before calling an iterative solver
          1135 MiB given to the printing process from OS
           758 MiB allocation reported by mallinfo(arena+hblkhd)
        239475 MiB available memory on the node where the printing process lives
     GPU memory used/free/total (MiB): 1832 / 38608 / 40440
------------------
     ethr =  5.18E-12,  avg # of iterations =  6.0

     negative rho (up, down):  0.000E+00 2.996E-03

     total cpu time spent up to now is       47.4 secs

     total energy              =    -506.80483139 Ry
     estimated scf accuracy    <          4.0E-09 Ry

     total magnetization       =    -0.00    -0.00     6.01 Bohr mag/cell
     absolute magnetization    =     7.00 Bohr mag/cell
[tb_dev] Currently allocated     0.00E+00 Mbytes, locked:    0 /   0
[tb_pin] Currently allocated     0.00E+00 Mbytes, locked:    0 /   0

     iteration #156     ecut=    30.00 Ry     beta= 0.30
     Davidson diagonalization with overlap

---- Real-time Memory Report at c_bands before calling an iterative solver
          1136 MiB given to the printing process from OS
           758 MiB allocation reported by mallinfo(arena+hblkhd)
        239475 MiB available memory on the node where the printing process lives
     GPU memory used/free/total (MiB): 1832 / 38608 / 40440
------------------
     ethr =  5.18E-12,  avg # of iterations = 15.0

     negative rho (up, down):  0.000E+00 2.996E-03

     total cpu time spent up to now is       47.7 secs

     total energy              =    -506.80482996 Ry
     estimated scf accuracy    <       0.00000003 Ry

     total magnetization       =     0.00    -0.00     6.01 Bohr mag/cell
     absolute magnetization    =     7.01 Bohr mag/cell
[tb_dev] Currently allocated     0.00E+00 Mbytes, locked:    0 /   0
[tb_pin] Currently allocated     0.00E+00 Mbytes, locked:    0 /   0

     iteration #157     ecut=    30.00 Ry     beta= 0.30
     Davidson diagonalization with overlap

---- Real-time Memory Report at c_bands before calling an iterative solver
          1136 MiB given to the printing process from OS
           758 MiB allocation reported by mallinfo(arena+hblkhd)
        239475 MiB available memory on the node where the printing process lives
     GPU memory used/free/total (MiB): 1832 / 38608 / 40440
------------------
     ethr =  5.18E-12,  avg # of iterations = 15.3

     negative rho (up, down):  0.000E+00 2.996E-03

     total cpu time spent up to now is       48.1 secs

     total energy              =    -506.80483491 Ry
     estimated scf accuracy    <       0.00000001 Ry

     total magnetization       =    -0.00    -0.00     6.01 Bohr mag/cell
     absolute magnetization    =     7.00 Bohr mag/cell
[tb_dev] Currently allocated     0.00E+00 Mbytes, locked:    0 /   0
[tb_pin] Currently allocated     0.00E+00 Mbytes, locked:    0 /   0

     iteration #158     ecut=    30.00 Ry     beta= 0.30
     Davidson diagonalization with overlap

---- Real-time Memory Report at c_bands before calling an iterative solver
          1136 MiB given to the printing process from OS
           758 MiB allocation reported by mallinfo(arena+hblkhd)
        239475 MiB available memory on the node where the printing process lives
     GPU memory used/free/total (MiB): 1832 / 38608 / 40440
------------------
     ethr =  5.18E-12,  avg # of iterations = 10.0

     negative rho (up, down):  0.000E+00 2.996E-03

     total cpu time spent up to now is       48.4 secs

     total energy              =    -506.80480326 Ry
     estimated scf accuracy    <       0.00000002 Ry

     total magnetization       =    -0.00     0.00     6.01 Bohr mag/cell
     absolute magnetization    =     7.00 Bohr mag/cell
[tb_dev] Currently allocated     0.00E+00 Mbytes, locked:    0 /   0
[tb_pin] Currently allocated     0.00E+00 Mbytes, locked:    0 /   0

     iteration #159     ecut=    30.00 Ry     beta= 0.30
     Davidson diagonalization with overlap

---- Real-time Memory Report at c_bands before calling an iterative solver
          1136 MiB given to the printing process from OS
           758 MiB allocation reported by mallinfo(arena+hblkhd)
        239475 MiB available memory on the node where the printing process lives
     GPU memory used/free/total (MiB): 1832 / 38608 / 40440
------------------
     ethr =  5.18E-12,  avg # of iterations = 16.0

     negative rho (up, down):  0.000E+00 2.996E-03

     total cpu time spent up to now is       48.8 secs

     total energy              =    -506.80481266 Ry
     estimated scf accuracy    <       0.00000155 Ry

     total magnetization       =    -0.00     0.00     6.01 Bohr mag/cell
     absolute magnetization    =     7.00 Bohr mag/cell
[tb_dev] Currently allocated     0.00E+00 Mbytes, locked:    0 /   0
[tb_pin] Currently allocated     0.00E+00 Mbytes, locked:    0 /   0

     iteration #160     ecut=    30.00 Ry     beta= 0.30
     Davidson diagonalization with overlap

---- Real-time Memory Report at c_bands before calling an iterative solver
          1136 MiB given to the printing process from OS
           758 MiB allocation reported by mallinfo(arena+hblkhd)
        239475 MiB available memory on the node where the printing process lives
     GPU memory used/free/total (MiB): 1832 / 38608 / 40440
------------------
     ethr =  5.18E-12,  avg # of iterations = 16.0

     negative rho (up, down):  0.000E+00 2.996E-03

     total cpu time spent up to now is       49.2 secs

     total energy              =    -506.80483497 Ry
     estimated scf accuracy    <       0.00000001 Ry

     total magnetization       =    -0.00    -0.00     6.01 Bohr mag/cell
     absolute magnetization    =     7.00 Bohr mag/cell
[tb_dev] Currently allocated     0.00E+00 Mbytes, locked:    0 /   0
[tb_pin] Currently allocated     0.00E+00 Mbytes, locked:    0 /   0

     iteration #161     ecut=    30.00 Ry     beta= 0.30
     Davidson diagonalization with overlap

---- Real-time Memory Report at c_bands before calling an iterative solver
          1136 MiB given to the printing process from OS
           758 MiB allocation reported by mallinfo(arena+hblkhd)
        239475 MiB available memory on the node where the printing process lives
     GPU memory used/free/total (MiB): 1832 / 38608 / 40440
------------------
     ethr =  5.18E-12,  avg # of iterations =  7.7

     negative rho (up, down):  0.000E+00 2.971E-03

     total cpu time spent up to now is       49.5 secs

     total energy              =    -506.80483428 Ry
     estimated scf accuracy    <          9.7E-09 Ry

     total magnetization       =    -0.00    -0.00     6.01 Bohr mag/cell
     absolute magnetization    =     7.00 Bohr mag/cell
[tb_dev] Currently allocated     0.00E+00 Mbytes, locked:    0 /   0
[tb_pin] Currently allocated     0.00E+00 Mbytes, locked:    0 /   0

     iteration #162     ecut=    30.00 Ry     beta= 0.30
     Davidson diagonalization with overlap

---- Real-time Memory Report at c_bands before calling an iterative solver
          1136 MiB given to the printing process from OS
           758 MiB allocation reported by mallinfo(arena+hblkhd)
        239475 MiB available memory on the node where the printing process lives
     GPU memory used/free/total (MiB): 1832 / 38608 / 40440
------------------
     ethr =  5.18E-12,  avg # of iterations = 10.0

     negative rho (up, down):  0.000E+00 2.971E-03

     total cpu time spent up to now is       49.8 secs

     total energy              =    -506.80483432 Ry
     estimated scf accuracy    <          7.6E-09 Ry

     total magnetization       =     0.00    -0.00     6.01 Bohr mag/cell
     absolute magnetization    =     7.00 Bohr mag/cell
[tb_dev] Currently allocated     0.00E+00 Mbytes, locked:    0 /   0
[tb_pin] Currently allocated     0.00E+00 Mbytes, locked:    0 /   0

     iteration #163     ecut=    30.00 Ry     beta= 0.30
     Davidson diagonalization with overlap

---- Real-time Memory Report at c_bands before calling an iterative solver
          1136 MiB given to the printing process from OS
           758 MiB allocation reported by mallinfo(arena+hblkhd)
        239475 MiB available memory on the node where the printing process lives
     GPU memory used/free/total (MiB): 1832 / 38608 / 40440
------------------
     ethr =  5.18E-12,  avg # of iterations =  1.0

     negative rho (up, down):  0.000E+00 2.971E-03

     total cpu time spent up to now is       50.0 secs

     total energy              =    -506.80483429 Ry
     estimated scf accuracy    <          7.9E-09 Ry

     total magnetization       =     0.00    -0.00     6.01 Bohr mag/cell
     absolute magnetization    =     7.00 Bohr mag/cell
[tb_dev] Currently allocated     0.00E+00 Mbytes, locked:    0 /   0
[tb_pin] Currently allocated     0.00E+00 Mbytes, locked:    0 /   0

     iteration #164     ecut=    30.00 Ry     beta= 0.30
     Davidson diagonalization with overlap

---- Real-time Memory Report at c_bands before calling an iterative solver
          1136 MiB given to the printing process from OS
           758 MiB allocation reported by mallinfo(arena+hblkhd)
        239475 MiB available memory on the node where the printing process lives
     GPU memory used/free/total (MiB): 1832 / 38608 / 40440
------------------
     ethr =  5.18E-12,  avg # of iterations =  2.3

     negative rho (up, down):  0.000E+00 2.996E-03

     total cpu time spent up to now is       50.2 secs

     total energy              =    -506.80483378 Ry
     estimated scf accuracy    <          9.2E-09 Ry

     total magnetization       =     0.00     0.00     6.01 Bohr mag/cell
     absolute magnetization    =     7.00 Bohr mag/cell
[tb_dev] Currently allocated     0.00E+00 Mbytes, locked:    0 /   0
[tb_pin] Currently allocated     0.00E+00 Mbytes, locked:    0 /   0

     iteration #165     ecut=    30.00 Ry     beta= 0.30
     Davidson diagonalization with overlap

---- Real-time Memory Report at c_bands before calling an iterative solver
          1136 MiB given to the printing process from OS
           758 MiB allocation reported by mallinfo(arena+hblkhd)
        239475 MiB available memory on the node where the printing process lives
     GPU memory used/free/total (MiB): 1832 / 38608 / 40440
------------------
     ethr =  5.18E-12,  avg # of iterations = 13.3

     negative rho (up, down):  0.000E+00 2.996E-03

     total cpu time spent up to now is       50.6 secs

     total energy              =    -506.80483392 Ry
     estimated scf accuracy    <       0.00000003 Ry

     total magnetization       =    -0.00    -0.00     6.01 Bohr mag/cell
     absolute magnetization    =     7.00 Bohr mag/cell
[tb_dev] Currently allocated     0.00E+00 Mbytes, locked:    0 /   0
[tb_pin] Currently allocated     0.00E+00 Mbytes, locked:    0 /   0

     iteration #166     ecut=    30.00 Ry     beta= 0.30
     Davidson diagonalization with overlap

---- Real-time Memory Report at c_bands before calling an iterative solver
          1136 MiB given to the printing process from OS
           758 MiB allocation reported by mallinfo(arena+hblkhd)
        239476 MiB available memory on the node where the printing process lives
     GPU memory used/free/total (MiB): 1832 / 38608 / 40440
------------------
     ethr =  5.18E-12,  avg # of iterations =  5.7

     negative rho (up, down):  0.000E+00 2.996E-03

     total cpu time spent up to now is       50.8 secs

     total energy              =    -506.80483350 Ry
     estimated scf accuracy    <          7.6E-09 Ry

     total magnetization       =     0.00     0.00     6.01 Bohr mag/cell
     absolute magnetization    =     7.00 Bohr mag/cell
[tb_dev] Currently allocated     0.00E+00 Mbytes, locked:    0 /   0
[tb_pin] Currently allocated     0.00E+00 Mbytes, locked:    0 /   0

     iteration #167     ecut=    30.00 Ry     beta= 0.30
     Davidson diagonalization with overlap

---- Real-time Memory Report at c_bands before calling an iterative solver
          1136 MiB given to the printing process from OS
           758 MiB allocation reported by mallinfo(arena+hblkhd)
        239477 MiB available memory on the node where the printing process lives
     GPU memory used/free/total (MiB): 1832 / 38608 / 40440
------------------
     ethr =  5.18E-12,  avg # of iterations =  7.3

     negative rho (up, down):  0.000E+00 2.996E-03

     total cpu time spent up to now is       51.1 secs

     total energy              =    -506.80483370 Ry
     estimated scf accuracy    <          5.9E-09 Ry

     total magnetization       =    -0.00     0.00     6.01 Bohr mag/cell
     absolute magnetization    =     7.00 Bohr mag/cell
[tb_dev] Currently allocated     0.00E+00 Mbytes, locked:    0 /   0
[tb_pin] Currently allocated     0.00E+00 Mbytes, locked:    0 /   0

     iteration #168     ecut=    30.00 Ry     beta= 0.30
     Davidson diagonalization with overlap

---- Real-time Memory Report at c_bands before calling an iterative solver
          1136 MiB given to the printing process from OS
           758 MiB allocation reported by mallinfo(arena+hblkhd)
        239480 MiB available memory on the node where the printing process lives
     GPU memory used/free/total (MiB): 1832 / 38608 / 40440
------------------
     ethr =  5.18E-12,  avg # of iterations =  3.7

     negative rho (up, down):  0.000E+00 2.971E-03

     total cpu time spent up to now is       51.4 secs

     total energy              =    -506.80483158 Ry
     estimated scf accuracy    <          5.6E-09 Ry

     total magnetization       =    -0.00     0.00     6.01 Bohr mag/cell
     absolute magnetization    =     7.00 Bohr mag/cell
[tb_dev] Currently allocated     0.00E+00 Mbytes, locked:    0 /   0
[tb_pin] Currently allocated     0.00E+00 Mbytes, locked:    0 /   0

     iteration #169     ecut=    30.00 Ry     beta= 0.30
     Davidson diagonalization with overlap

---- Real-time Memory Report at c_bands before calling an iterative solver
          1136 MiB given to the printing process from OS
           758 MiB allocation reported by mallinfo(arena+hblkhd)
        239480 MiB available memory on the node where the printing process lives
     GPU memory used/free/total (MiB): 1832 / 38608 / 40440
------------------
     ethr =  5.18E-12,  avg # of iterations = 13.7

     negative rho (up, down):  0.000E+00 2.996E-03

     total cpu time spent up to now is       51.7 secs

     total energy              =    -506.80483163 Ry
     estimated scf accuracy    <       0.00000002 Ry

     total magnetization       =     0.00     0.00     6.01 Bohr mag/cell
     absolute magnetization    =     7.00 Bohr mag/cell
[tb_dev] Currently allocated     0.00E+00 Mbytes, locked:    0 /   0
[tb_pin] Currently allocated     0.00E+00 Mbytes, locked:    0 /   0

     iteration #170     ecut=    30.00 Ry     beta= 0.30
     Davidson diagonalization with overlap

---- Real-time Memory Report at c_bands before calling an iterative solver
          1136 MiB given to the printing process from OS
           758 MiB allocation reported by mallinfo(arena+hblkhd)
        239480 MiB available memory on the node where the printing process lives
     GPU memory used/free/total (MiB): 1832 / 38608 / 40440
------------------
     ethr =  5.18E-12,  avg # of iterations = 14.3

     negative rho (up, down):  0.000E+00 2.971E-03

     total cpu time spent up to now is       52.0 secs

     total energy              =    -506.80483364 Ry
     estimated scf accuracy    <          6.5E-09 Ry

     total magnetization       =     0.00     0.00     6.01 Bohr mag/cell
     absolute magnetization    =     7.00 Bohr mag/cell
[tb_dev] Currently allocated     0.00E+00 Mbytes, locked:    0 /   0
[tb_pin] Currently allocated     0.00E+00 Mbytes, locked:    0 /   0

     iteration #171     ecut=    30.00 Ry     beta= 0.30
     Davidson diagonalization with overlap

---- Real-time Memory Report at c_bands before calling an iterative solver
          1136 MiB given to the printing process from OS
           758 MiB allocation reported by mallinfo(arena+hblkhd)
        239478 MiB available memory on the node where the printing process lives
     GPU memory used/free/total (MiB): 1832 / 38608 / 40440
------------------
     ethr =  5.18E-12,  avg # of iterations = 12.3

     negative rho (up, down):  0.000E+00 2.971E-03

     total cpu time spent up to now is       52.4 secs

     total energy              =    -506.80483140 Ry
     estimated scf accuracy    <       0.00000002 Ry

     total magnetization       =     0.00    -0.00     6.01 Bohr mag/cell
     absolute magnetization    =     7.00 Bohr mag/cell
[tb_dev] Currently allocated     0.00E+00 Mbytes, locked:    0 /   0
[tb_pin] Currently allocated     0.00E+00 Mbytes, locked:    0 /   0

     iteration #172     ecut=    30.00 Ry     beta= 0.30
     Davidson diagonalization with overlap

---- Real-time Memory Report at c_bands before calling an iterative solver
          1136 MiB given to the printing process from OS
           758 MiB allocation reported by mallinfo(arena+hblkhd)
        239479 MiB available memory on the node where the printing process lives
     GPU memory used/free/total (MiB): 1832 / 38608 / 40440
------------------
     ethr =  5.18E-12,  avg # of iterations = 13.7

     negative rho (up, down):  0.000E+00 2.996E-03

     total cpu time spent up to now is       52.7 secs

     total energy              =    -506.80483389 Ry
     estimated scf accuracy    <          5.9E-09 Ry

     total magnetization       =    -0.00    -0.00     6.01 Bohr mag/cell
     absolute magnetization    =     7.00 Bohr mag/cell
[tb_dev] Currently allocated     0.00E+00 Mbytes, locked:    0 /   0
[tb_pin] Currently allocated     0.00E+00 Mbytes, locked:    0 /   0

     iteration #173     ecut=    30.00 Ry     beta= 0.30
     Davidson diagonalization with overlap

---- Real-time Memory Report at c_bands before calling an iterative solver
          1136 MiB given to the printing process from OS
           758 MiB allocation reported by mallinfo(arena+hblkhd)
        239479 MiB available memory on the node where the printing process lives
     GPU memory used/free/total (MiB): 1832 / 38608 / 40440
------------------
     ethr =  5.18E-12,  avg # of iterations = 11.0

     negative rho (up, down):  0.000E+00 2.971E-03

     total cpu time spent up to now is       53.1 secs

     total energy              =    -506.80483339 Ry
     estimated scf accuracy    <          9.2E-09 Ry

     total magnetization       =    -0.00    -0.00     6.01 Bohr mag/cell
     absolute magnetization    =     7.00 Bohr mag/cell
[tb_dev] Currently allocated     0.00E+00 Mbytes, locked:    0 /   0
[tb_pin] Currently allocated     0.00E+00 Mbytes, locked:    0 /   0

     iteration #174     ecut=    30.00 Ry     beta= 0.30
     Davidson diagonalization with overlap

---- Real-time Memory Report at c_bands before calling an iterative solver
          1136 MiB given to the printing process from OS
           758 MiB allocation reported by mallinfo(arena+hblkhd)
        239479 MiB available memory on the node where the printing process lives
     GPU memory used/free/total (MiB): 1832 / 38608 / 40440
------------------
     ethr =  5.18E-12,  avg # of iterations =  5.3

     negative rho (up, down):  0.000E+00 2.996E-03

     total cpu time spent up to now is       53.3 secs

     total energy              =    -506.80483299 Ry
     estimated scf accuracy    <          5.6E-09 Ry

     total magnetization       =     0.00     0.00     6.01 Bohr mag/cell
     absolute magnetization    =     7.00 Bohr mag/cell
[tb_dev] Currently allocated     0.00E+00 Mbytes, locked:    0 /   0
[tb_pin] Currently allocated     0.00E+00 Mbytes, locked:    0 /   0

     iteration #175     ecut=    30.00 Ry     beta= 0.30
     Davidson diagonalization with overlap

---- Real-time Memory Report at c_bands before calling an iterative solver
          1136 MiB given to the printing process from OS
           758 MiB allocation reported by mallinfo(arena+hblkhd)
        239478 MiB available memory on the node where the printing process lives
     GPU memory used/free/total (MiB): 1832 / 38608 / 40440
------------------
     ethr =  5.18E-12,  avg # of iterations = 13.0

     negative rho (up, down):  0.000E+00 2.996E-03

     total cpu time spent up to now is       53.6 secs

     total energy              =    -506.80483400 Ry
     estimated scf accuracy    <          9.1E-09 Ry

     total magnetization       =     0.00     0.00     6.01 Bohr mag/cell
     absolute magnetization    =     7.00 Bohr mag/cell
[tb_dev] Currently allocated     0.00E+00 Mbytes, locked:    0 /   0
[tb_pin] Currently allocated     0.00E+00 Mbytes, locked:    0 /   0

     iteration #176     ecut=    30.00 Ry     beta= 0.30
     Davidson diagonalization with overlap

---- Real-time Memory Report at c_bands before calling an iterative solver
          1136 MiB given to the printing process from OS
           758 MiB allocation reported by mallinfo(arena+hblkhd)
        239478 MiB available memory on the node where the printing process lives
     GPU memory used/free/total (MiB): 1832 / 38608 / 40440
------------------
     ethr =  5.18E-12,  avg # of iterations =  7.0

     negative rho (up, down):  0.000E+00 2.996E-03

     total cpu time spent up to now is       53.9 secs

     total energy              =    -506.80483458 Ry
     estimated scf accuracy    <       0.00000002 Ry

     total magnetization       =    -0.00    -0.00     6.01 Bohr mag/cell
     absolute magnetization    =     7.00 Bohr mag/cell
[tb_dev] Currently allocated     0.00E+00 Mbytes, locked:    0 /   0
[tb_pin] Currently allocated     0.00E+00 Mbytes, locked:    0 /   0

     iteration #177     ecut=    30.00 Ry     beta= 0.30
     Davidson diagonalization with overlap

---- Real-time Memory Report at c_bands before calling an iterative solver
          1136 MiB given to the printing process from OS
           758 MiB allocation reported by mallinfo(arena+hblkhd)
        239517 MiB available memory on the node where the printing process lives
     GPU memory used/free/total (MiB): 1832 / 38608 / 40440
------------------
     ethr =  5.18E-12,  avg # of iterations =  9.3

     negative rho (up, down):  0.000E+00 2.996E-03

     total cpu time spent up to now is       54.2 secs

     total energy              =    -506.80483443 Ry
     estimated scf accuracy    <       0.00000003 Ry

     total magnetization       =     0.00     0.00     6.01 Bohr mag/cell
     absolute magnetization    =     7.00 Bohr mag/cell
[tb_dev] Currently allocated     0.00E+00 Mbytes, locked:    0 /   0
[tb_pin] Currently allocated     0.00E+00 Mbytes, locked:    0 /   0

     iteration #178     ecut=    30.00 Ry     beta= 0.30
     Davidson diagonalization with overlap

---- Real-time Memory Report at c_bands before calling an iterative solver
          1136 MiB given to the printing process from OS
           758 MiB allocation reported by mallinfo(arena+hblkhd)
        239514 MiB available memory on the node where the printing process lives
     GPU memory used/free/total (MiB): 1832 / 38608 / 40440
------------------
     ethr =  5.18E-12,  avg # of iterations = 13.3

     negative rho (up, down):  0.000E+00 2.971E-03

     total cpu time spent up to now is       54.6 secs

     total energy              =    -506.80483174 Ry
     estimated scf accuracy    <       0.00000001 Ry

     total magnetization       =    -0.00     0.00     6.01 Bohr mag/cell
     absolute magnetization    =     7.00 Bohr mag/cell
[tb_dev] Currently allocated     0.00E+00 Mbytes, locked:    0 /   0
[tb_pin] Currently allocated     0.00E+00 Mbytes, locked:    0 /   0

     iteration #179     ecut=    30.00 Ry     beta= 0.30
     Davidson diagonalization with overlap

---- Real-time Memory Report at c_bands before calling an iterative solver
          1136 MiB given to the printing process from OS
           758 MiB allocation reported by mallinfo(arena+hblkhd)
        239514 MiB available memory on the node where the printing process lives
     GPU memory used/free/total (MiB): 1832 / 38608 / 40440
------------------
     ethr =  5.18E-12,  avg # of iterations = 14.0

     negative rho (up, down):  0.000E+00 2.971E-03

     total cpu time spent up to now is       54.9 secs

     total energy              =    -506.80483427 Ry
     estimated scf accuracy    <       0.00000001 Ry

     total magnetization       =    -0.00     0.00     6.01 Bohr mag/cell
     absolute magnetization    =     7.00 Bohr mag/cell
[tb_dev] Currently allocated     0.00E+00 Mbytes, locked:    0 /   0
[tb_pin] Currently allocated     0.00E+00 Mbytes, locked:    0 /   0

     iteration #180     ecut=    30.00 Ry     beta= 0.30
     Davidson diagonalization with overlap

---- Real-time Memory Report at c_bands before calling an iterative solver
          1136 MiB given to the printing process from OS
           758 MiB allocation reported by mallinfo(arena+hblkhd)
        239514 MiB available memory on the node where the printing process lives
     GPU memory used/free/total (MiB): 1832 / 38608 / 40440
------------------
     ethr =  5.18E-12,  avg # of iterations =  5.0

     negative rho (up, down):  0.000E+00 2.971E-03

     total cpu time spent up to now is       55.2 secs

     total energy              =    -506.80483425 Ry
     estimated scf accuracy    <       0.00000001 Ry

     total magnetization       =    -0.00     0.00     6.01 Bohr mag/cell
     absolute magnetization    =     7.00 Bohr mag/cell
[tb_dev] Currently allocated     0.00E+00 Mbytes, locked:    0 /   0
[tb_pin] Currently allocated     0.00E+00 Mbytes, locked:    0 /   0

     iteration #181     ecut=    30.00 Ry     beta= 0.30
     Davidson diagonalization with overlap

---- Real-time Memory Report at c_bands before calling an iterative solver
          1136 MiB given to the printing process from OS
           758 MiB allocation reported by mallinfo(arena+hblkhd)
        239512 MiB available memory on the node where the printing process lives
     GPU memory used/free/total (MiB): 1832 / 38608 / 40440
------------------
     ethr =  5.18E-12,  avg # of iterations =  6.3

     negative rho (up, down):  0.000E+00 2.971E-03

     total cpu time spent up to now is       55.4 secs

     total energy              =    -506.80483435 Ry
     estimated scf accuracy    <          9.1E-09 Ry

     total magnetization       =     0.00    -0.00     6.01 Bohr mag/cell
     absolute magnetization    =     7.00 Bohr mag/cell
[tb_dev] Currently allocated     0.00E+00 Mbytes, locked:    0 /   0
[tb_pin] Currently allocated     0.00E+00 Mbytes, locked:    0 /   0

     iteration #182     ecut=    30.00 Ry     beta= 0.30
     Davidson diagonalization with overlap

---- Real-time Memory Report at c_bands before calling an iterative solver
          1136 MiB given to the printing process from OS
           758 MiB allocation reported by mallinfo(arena+hblkhd)
        239512 MiB available memory on the node where the printing process lives
     GPU memory used/free/total (MiB): 1832 / 38608 / 40440
------------------
     ethr =  5.18E-12,  avg # of iterations =  5.3

     negative rho (up, down):  0.000E+00 2.996E-03

     total cpu time spent up to now is       55.7 secs

     total energy              =    -506.80483411 Ry
     estimated scf accuracy    <          9.4E-09 Ry

     total magnetization       =     0.00    -0.00     6.01 Bohr mag/cell
     absolute magnetization    =     7.00 Bohr mag/cell
[tb_dev] Currently allocated     0.00E+00 Mbytes, locked:    0 /   0
[tb_pin] Currently allocated     0.00E+00 Mbytes, locked:    0 /   0

     iteration #183     ecut=    30.00 Ry     beta= 0.30
     Davidson diagonalization with overlap

---- Real-time Memory Report at c_bands before calling an iterative solver
          1136 MiB given to the printing process from OS
           758 MiB allocation reported by mallinfo(arena+hblkhd)
        239512 MiB available memory on the node where the printing process lives
     GPU memory used/free/total (MiB): 1832 / 38608 / 40440
------------------
     ethr =  5.18E-12,  avg # of iterations = 10.3

     negative rho (up, down):  0.000E+00 2.996E-03

     total cpu time spent up to now is       56.0 secs

     total energy              =    -506.80483422 Ry
     estimated scf accuracy    <          8.6E-09 Ry

     total magnetization       =     0.00    -0.00     6.01 Bohr mag/cell
     absolute magnetization    =     7.00 Bohr mag/cell
[tb_dev] Currently allocated     0.00E+00 Mbytes, locked:    0 /   0
[tb_pin] Currently allocated     0.00E+00 Mbytes, locked:    0 /   0

     iteration #184     ecut=    30.00 Ry     beta= 0.30
     Davidson diagonalization with overlap

---- Real-time Memory Report at c_bands before calling an iterative solver
          1136 MiB given to the printing process from OS
           758 MiB allocation reported by mallinfo(arena+hblkhd)
        239512 MiB available memory on the node where the printing process lives
     GPU memory used/free/total (MiB): 1832 / 38608 / 40440
------------------
     ethr =  5.18E-12,  avg # of iterations =  4.0

     negative rho (up, down):  0.000E+00 2.996E-03

     total cpu time spent up to now is       56.2 secs

     total energy              =    -506.80483430 Ry
     estimated scf accuracy    <          8.2E-09 Ry

     total magnetization       =     0.00    -0.00     6.01 Bohr mag/cell
     absolute magnetization    =     7.00 Bohr mag/cell
[tb_dev] Currently allocated     0.00E+00 Mbytes, locked:    0 /   0
[tb_pin] Currently allocated     0.00E+00 Mbytes, locked:    0 /   0

     iteration #185     ecut=    30.00 Ry     beta= 0.30
     Davidson diagonalization with overlap

---- Real-time Memory Report at c_bands before calling an iterative solver
          1136 MiB given to the printing process from OS
           758 MiB allocation reported by mallinfo(arena+hblkhd)
        239511 MiB available memory on the node where the printing process lives
     GPU memory used/free/total (MiB): 1832 / 38608 / 40440
------------------
     ethr =  5.18E-12,  avg # of iterations =  4.7

     negative rho (up, down):  0.000E+00 2.971E-03

     total cpu time spent up to now is       56.4 secs

     total energy              =    -506.80483351 Ry
     estimated scf accuracy    <          8.3E-09 Ry

     total magnetization       =    -0.00    -0.00     6.01 Bohr mag/cell
     absolute magnetization    =     7.00 Bohr mag/cell
[tb_dev] Currently allocated     0.00E+00 Mbytes, locked:    0 /   0
[tb_pin] Currently allocated     0.00E+00 Mbytes, locked:    0 /   0

     iteration #186     ecut=    30.00 Ry     beta= 0.30
     Davidson diagonalization with overlap

---- Real-time Memory Report at c_bands before calling an iterative solver
          1136 MiB given to the printing process from OS
           758 MiB allocation reported by mallinfo(arena+hblkhd)
        239512 MiB available memory on the node where the printing process lives
     GPU memory used/free/total (MiB): 1832 / 38608 / 40440
------------------
     ethr =  5.18E-12,  avg # of iterations = 11.0

     negative rho (up, down):  0.000E+00 2.996E-03

     total cpu time spent up to now is       56.8 secs

     total energy              =    -506.80482914 Ry
     estimated scf accuracy    <       0.00000001 Ry

     total magnetization       =     0.00    -0.00     6.01 Bohr mag/cell
     absolute magnetization    =     7.00 Bohr mag/cell
[tb_dev] Currently allocated     0.00E+00 Mbytes, locked:    0 /   0
[tb_pin] Currently allocated     0.00E+00 Mbytes, locked:    0 /   0

     iteration #187     ecut=    30.00 Ry     beta= 0.30
     Davidson diagonalization with overlap

---- Real-time Memory Report at c_bands before calling an iterative solver
          1136 MiB given to the printing process from OS
           758 MiB allocation reported by mallinfo(arena+hblkhd)
        239512 MiB available memory on the node where the printing process lives
     GPU memory used/free/total (MiB): 1832 / 38608 / 40440
------------------
     ethr =  5.18E-12,  avg # of iterations = 14.3

     negative rho (up, down):  0.000E+00 2.996E-03

     total cpu time spent up to now is       57.1 secs

     total energy              =    -506.80483341 Ry
     estimated scf accuracy    <       0.00000005 Ry

     total magnetization       =    -0.00     0.00     6.01 Bohr mag/cell
     absolute magnetization    =     7.00 Bohr mag/cell
[tb_dev] Currently allocated     0.00E+00 Mbytes, locked:    0 /   0
[tb_pin] Currently allocated     0.00E+00 Mbytes, locked:    0 /   0

     iteration #188     ecut=    30.00 Ry     beta= 0.30
     Davidson diagonalization with overlap

---- Real-time Memory Report at c_bands before calling an iterative solver
          1136 MiB given to the printing process from OS
           758 MiB allocation reported by mallinfo(arena+hblkhd)
        239510 MiB available memory on the node where the printing process lives
     GPU memory used/free/total (MiB): 1832 / 38608 / 40440
------------------
     ethr =  5.18E-12,  avg # of iterations = 10.0

     negative rho (up, down):  0.000E+00 2.996E-03

     total cpu time spent up to now is       57.4 secs

     total energy              =    -506.80483016 Ry
     estimated scf accuracy    <       0.00000003 Ry

     total magnetization       =     0.00     0.00     6.01 Bohr mag/cell
     absolute magnetization    =     7.00 Bohr mag/cell
[tb_dev] Currently allocated     0.00E+00 Mbytes, locked:    0 /   0
[tb_pin] Currently allocated     0.00E+00 Mbytes, locked:    0 /   0

     iteration #189     ecut=    30.00 Ry     beta= 0.30
     Davidson diagonalization with overlap

---- Real-time Memory Report at c_bands before calling an iterative solver
          1136 MiB given to the printing process from OS
           758 MiB allocation reported by mallinfo(arena+hblkhd)
        239510 MiB available memory on the node where the printing process lives
     GPU memory used/free/total (MiB): 1832 / 38608 / 40440
------------------
     ethr =  5.18E-12,  avg # of iterations = 14.3

     negative rho (up, down):  0.000E+00 2.971E-03

     total cpu time spent up to now is       57.8 secs

     total energy              =    -506.80483454 Ry
     estimated scf accuracy    <       0.00000002 Ry

     total magnetization       =     0.00     0.00     6.01 Bohr mag/cell
     absolute magnetization    =     7.00 Bohr mag/cell
[tb_dev] Currently allocated     0.00E+00 Mbytes, locked:    0 /   0
[tb_pin] Currently allocated     0.00E+00 Mbytes, locked:    0 /   0

     iteration #190     ecut=    30.00 Ry     beta= 0.30
     Davidson diagonalization with overlap

---- Real-time Memory Report at c_bands before calling an iterative solver
          1136 MiB given to the printing process from OS
           758 MiB allocation reported by mallinfo(arena+hblkhd)
        239510 MiB available memory on the node where the printing process lives
     GPU memory used/free/total (MiB): 1832 / 38608 / 40440
------------------
     ethr =  5.18E-12,  avg # of iterations =  5.3

     negative rho (up, down):  0.000E+00 2.971E-03

     total cpu time spent up to now is       58.0 secs

     total energy              =    -506.80483439 Ry
     estimated scf accuracy    <       0.00000002 Ry

     total magnetization       =    -0.00     0.00     6.01 Bohr mag/cell
     absolute magnetization    =     7.00 Bohr mag/cell
[tb_dev] Currently allocated     0.00E+00 Mbytes, locked:    0 /   0
[tb_pin] Currently allocated     0.00E+00 Mbytes, locked:    0 /   0

     iteration #191     ecut=    30.00 Ry     beta= 0.30
     Davidson diagonalization with overlap

---- Real-time Memory Report at c_bands before calling an iterative solver
          1136 MiB given to the printing process from OS
           758 MiB allocation reported by mallinfo(arena+hblkhd)
        239510 MiB available memory on the node where the printing process lives
     GPU memory used/free/total (MiB): 1832 / 38608 / 40440
------------------
     ethr =  5.18E-12,  avg # of iterations =  3.7

     negative rho (up, down):  0.000E+00 2.996E-03

     total cpu time spent up to now is       58.3 secs

     total energy              =    -506.80483424 Ry
     estimated scf accuracy    <       0.00000001 Ry

     total magnetization       =    -0.00     0.00     6.01 Bohr mag/cell
     absolute magnetization    =     7.00 Bohr mag/cell
[tb_dev] Currently allocated     0.00E+00 Mbytes, locked:    0 /   0
[tb_pin] Currently allocated     0.00E+00 Mbytes, locked:    0 /   0

     iteration #192     ecut=    30.00 Ry     beta= 0.30
     Davidson diagonalization with overlap

---- Real-time Memory Report at c_bands before calling an iterative solver
          1136 MiB given to the printing process from OS
           758 MiB allocation reported by mallinfo(arena+hblkhd)
        239510 MiB available memory on the node where the printing process lives
     GPU memory used/free/total (MiB): 1832 / 38608 / 40440
------------------
     ethr =  5.18E-12,  avg # of iterations =  6.0

     negative rho (up, down):  0.000E+00 2.996E-03

     total cpu time spent up to now is       58.5 secs

     total energy              =    -506.80483399 Ry
     estimated scf accuracy    <       0.00000001 Ry

     total magnetization       =    -0.00    -0.00     6.01 Bohr mag/cell
     absolute magnetization    =     7.00 Bohr mag/cell
[tb_dev] Currently allocated     0.00E+00 Mbytes, locked:    0 /   0
[tb_pin] Currently allocated     0.00E+00 Mbytes, locked:    0 /   0

     iteration #193     ecut=    30.00 Ry     beta= 0.30
     Davidson diagonalization with overlap

---- Real-time Memory Report at c_bands before calling an iterative solver
          1136 MiB given to the printing process from OS
           758 MiB allocation reported by mallinfo(arena+hblkhd)
        239510 MiB available memory on the node where the printing process lives
     GPU memory used/free/total (MiB): 1832 / 38608 / 40440
------------------
     ethr =  5.18E-12,  avg # of iterations =  6.0

     negative rho (up, down):  0.000E+00 2.996E-03

     total cpu time spent up to now is       58.8 secs

     total energy              =    -506.80483404 Ry
     estimated scf accuracy    <          9.6E-09 Ry

     total magnetization       =     0.00     0.00     6.01 Bohr mag/cell
     absolute magnetization    =     7.00 Bohr mag/cell
[tb_dev] Currently allocated     0.00E+00 Mbytes, locked:    0 /   0
[tb_pin] Currently allocated     0.00E+00 Mbytes, locked:    0 /   0

     iteration #194     ecut=    30.00 Ry     beta= 0.30
     Davidson diagonalization with overlap

---- Real-time Memory Report at c_bands before calling an iterative solver
          1136 MiB given to the printing process from OS
           758 MiB allocation reported by mallinfo(arena+hblkhd)
        239510 MiB available memory on the node where the printing process lives
     GPU memory used/free/total (MiB): 1832 / 38608 / 40440
------------------
     ethr =  5.18E-12,  avg # of iterations =  4.0

     negative rho (up, down):  0.000E+00 2.996E-03

     total cpu time spent up to now is       59.0 secs

     total energy              =    -506.80483411 Ry
     estimated scf accuracy    <       0.00000001 Ry

     total magnetization       =    -0.00     0.00     6.01 Bohr mag/cell
     absolute magnetization    =     7.00 Bohr mag/cell
[tb_dev] Currently allocated     0.00E+00 Mbytes, locked:    0 /   0
[tb_pin] Currently allocated     0.00E+00 Mbytes, locked:    0 /   0

     iteration #195     ecut=    30.00 Ry     beta= 0.30
     Davidson diagonalization with overlap

---- Real-time Memory Report at c_bands before calling an iterative solver
          1136 MiB given to the printing process from OS
           758 MiB allocation reported by mallinfo(arena+hblkhd)
        239510 MiB available memory on the node where the printing process lives
     GPU memory used/free/total (MiB): 1832 / 38608 / 40440
------------------
     ethr =  5.18E-12,  avg # of iterations =  9.3

     negative rho (up, down):  0.000E+00 2.996E-03

     total cpu time spent up to now is       59.3 secs

     total energy              =    -506.80483440 Ry
     estimated scf accuracy    <       0.00000002 Ry

     total magnetization       =     0.00     0.00     6.01 Bohr mag/cell
     absolute magnetization    =     7.00 Bohr mag/cell
[tb_dev] Currently allocated     0.00E+00 Mbytes, locked:    0 /   0
[tb_pin] Currently allocated     0.00E+00 Mbytes, locked:    0 /   0

     iteration #196     ecut=    30.00 Ry     beta= 0.30
     Davidson diagonalization with overlap

---- Real-time Memory Report at c_bands before calling an iterative solver
          1136 MiB given to the printing process from OS
           758 MiB allocation reported by mallinfo(arena+hblkhd)
        239509 MiB available memory on the node where the printing process lives
     GPU memory used/free/total (MiB): 1832 / 38608 / 40440
------------------
     ethr =  5.18E-12,  avg # of iterations =  5.0

     negative rho (up, down):  0.000E+00 2.971E-03

     total cpu time spent up to now is       59.6 secs

     total energy              =    -506.80482507 Ry
     estimated scf accuracy    <       0.00000001 Ry

     total magnetization       =    -0.00    -0.00     6.01 Bohr mag/cell
     absolute magnetization    =     7.00 Bohr mag/cell
[tb_dev] Currently allocated     0.00E+00 Mbytes, locked:    0 /   0
[tb_pin] Currently allocated     0.00E+00 Mbytes, locked:    0 /   0

     iteration #197     ecut=    30.00 Ry     beta= 0.30
     Davidson diagonalization with overlap

---- Real-time Memory Report at c_bands before calling an iterative solver
          1136 MiB given to the printing process from OS
           758 MiB allocation reported by mallinfo(arena+hblkhd)
        239509 MiB available memory on the node where the printing process lives
     GPU memory used/free/total (MiB): 1832 / 38608 / 40440
------------------
     ethr =  5.18E-12,  avg # of iterations = 15.0

     negative rho (up, down):  0.000E+00 2.971E-03

     total cpu time spent up to now is       60.0 secs

     total energy              =    -506.80483212 Ry
     estimated scf accuracy    <       0.00000011 Ry

     total magnetization       =     0.00     0.00     6.01 Bohr mag/cell
     absolute magnetization    =     7.01 Bohr mag/cell
[tb_dev] Currently allocated     0.00E+00 Mbytes, locked:    0 /   0
[tb_pin] Currently allocated     0.00E+00 Mbytes, locked:    0 /   0

     iteration #198     ecut=    30.00 Ry     beta= 0.30
     Davidson diagonalization with overlap

---- Real-time Memory Report at c_bands before calling an iterative solver
          1136 MiB given to the printing process from OS
           758 MiB allocation reported by mallinfo(arena+hblkhd)
        239509 MiB available memory on the node where the printing process lives
     GPU memory used/free/total (MiB): 1832 / 38608 / 40440
------------------
     ethr =  5.18E-12,  avg # of iterations = 14.7

     negative rho (up, down):  0.000E+00 2.971E-03

     total cpu time spent up to now is       60.3 secs

     total energy              =    -506.80483232 Ry
     estimated scf accuracy    <       0.00000002 Ry

     total magnetization       =    -0.00    -0.00     6.01 Bohr mag/cell
     absolute magnetization    =     7.00 Bohr mag/cell
[tb_dev] Currently allocated     0.00E+00 Mbytes, locked:    0 /   0
[tb_pin] Currently allocated     0.00E+00 Mbytes, locked:    0 /   0

     iteration #199     ecut=    30.00 Ry     beta= 0.30
     Davidson diagonalization with overlap

---- Real-time Memory Report at c_bands before calling an iterative solver
          1136 MiB given to the printing process from OS
           758 MiB allocation reported by mallinfo(arena+hblkhd)
        239507 MiB available memory on the node where the printing process lives
     GPU memory used/free/total (MiB): 1832 / 38608 / 40440
------------------
     ethr =  5.18E-12,  avg # of iterations = 13.7

     negative rho (up, down):  0.000E+00 2.971E-03

     total cpu time spent up to now is       60.7 secs

     total energy              =    -506.80483396 Ry
     estimated scf accuracy    <          9.5E-09 Ry

     total magnetization       =     0.00    -0.00     6.01 Bohr mag/cell
     absolute magnetization    =     7.00 Bohr mag/cell
[tb_dev] Currently allocated     0.00E+00 Mbytes, locked:    0 /   0
[tb_pin] Currently allocated     0.00E+00 Mbytes, locked:    0 /   0

     iteration #200     ecut=    30.00 Ry     beta= 0.30
     Davidson diagonalization with overlap

---- Real-time Memory Report at c_bands before calling an iterative solver
          1136 MiB given to the printing process from OS
           758 MiB allocation reported by mallinfo(arena+hblkhd)
        239507 MiB available memory on the node where the printing process lives
     GPU memory used/free/total (MiB): 1832 / 38608 / 40440
------------------
     ethr =  5.18E-12,  avg # of iterations =  1.0

     negative rho (up, down):  0.000E+00 2.984E-03

     total cpu time spent up to now is       60.9 secs

     total energy              =    -506.80483497 Ry
     estimated scf accuracy    <          9.5E-09 Ry

     total magnetization       =    -0.00     0.00     6.01 Bohr mag/cell
     absolute magnetization    =     7.00 Bohr mag/cell

     End of self-consistent calculation

     convergence NOT achieved after 200 iterations: stopping

     Writing config to output data dir ./CrI3.save/ :
     XML data file, charge density distributed wavefunctions
 
     init_run     :      0.40s CPU      1.21s WALL (       1 calls)
     electrons    :     55.14s CPU     58.84s WALL (       1 calls)

     Called by init_run:
     wfcinit      :      0.08s CPU      0.48s WALL (       1 calls)
     wfcinit:atom :      0.00s CPU      0.00s WALL (       1 calls)
     wfcinit:wfcr :      0.08s CPU      0.40s WALL (       1 calls)
     potinit      :      0.05s CPU      0.07s WALL (       1 calls)
     hinit0       :      0.24s CPU      0.53s WALL (       1 calls)

     Called by electrons:
     c_bands      :     34.81s CPU     36.51s WALL (     200 calls)
     sum_band     :      6.01s CPU      6.71s WALL (     200 calls)
     v_of_rho     :      1.57s CPU      1.70s WALL (     201 calls)
     v_h          :      0.21s CPU      0.21s WALL (     201 calls)
     v_xc         :      1.37s CPU      1.48s WALL (     201 calls)
     mix_rho      :     10.24s CPU     10.22s WALL (     200 calls)

     Called by c_bands:
     init_us_2    :      0.15s CPU      0.16s WALL (     401 calls)
     cegterg      :     33.15s CPU     33.76s WALL (     200 calls)

     Called by sum_band:
     sum_band:wei :      0.01s CPU      0.02s WALL (     200 calls)
     sum_band:loo :      3.21s CPU      3.31s WALL (     200 calls)
     sum_band:buf :      0.27s CPU      0.29s WALL (     200 calls)
     sum_band:ini :      0.08s CPU      0.08s WALL (     200 calls)

     Called by *egterg:
     cdiaghg      :      7.02s CPU      7.35s WALL (    1848 calls)
                                        7.34s GPU  (    1848 calls)
     cegterg:over :      2.06s CPU      2.08s WALL (    1648 calls)
     cegterg:upda :      1.15s CPU      1.13s WALL (    1648 calls)
     cegterg:last :      0.18s CPU      0.17s WALL (     310 calls)
     h_psi        :     22.11s CPU     22.75s WALL (    1849 calls)
     g_psi        :      0.06s CPU      0.06s WALL (    1648 calls)

     Called by h_psi:
     h_psi:calbec :      0.08s CPU      0.23s WALL (    1849 calls)
     vloc_psi     :     21.21s CPU     21.71s WALL (    1849 calls)
                                       21.70s GPU  (    1849 calls)
     add_vuspsi   :      0.70s CPU      0.72s WALL (    1849 calls)

     General routines
     calbec       :      0.08s CPU      0.22s WALL (    1849 calls)
     fft          :      0.13s CPU      0.61s WALL (    5023 calls)
                                        0.58s GPU  (    5023 calls)
     ffts         :      0.01s CPU      0.04s WALL (     800 calls)
                                        0.03s GPU  (     800 calls)
     fftw         :      2.75s CPU     12.97s WALL (  321352 calls)
                                       10.90s GPU  (  321352 calls)
     davcio       :      0.00s CPU      0.16s WALL (      19 calls)
 
     Parallel routines
 
     PWSCF        :     56.08s CPU   1m 1.10s WALL

 
   This run was terminated on:   0:54:56  16Jun2026            

=------------------------------------------------------------------------------=
   JOB DONE.
=------------------------------------------------------------------------------=
