
Lmod is automatically replacing "gcc-native/14" with "nvidia/25.5".


Lmod is automatically replacing "PrgEnv-gnu/8.6.0" with "PrgEnv-nvidia/8.6.0".


Due to MODULEPATH changes, the following have been reloaded:
  1) cray-libsci/25.09.0     2) cray-mpich/9.0.1


     Program PWSCF v.7.3.1 starts on  9May2026 at 12:12: 8 
        Git branch: HEAD
        Last git commit: 7fd60c9bc9fe7a7d1fe6f1049f4afba0eab9aeef-dirty
        Last git commit date: Thu Feb 29 10:18:05 2024 +0000
        Last git commit subject: Merge branch 'master_qe_7.3.1' into 'master'

     This program is part of the open-source Quantum ESPRESSO suite
     for quantum simulation of materials; please cite
         "P. Giannozzi et al., J. Phys.:Condens. Matter 21 395502 (2009);
         "P. Giannozzi et al., J. Phys.:Condens. Matter 29 465901 (2017);
         "P. Giannozzi et al., J. Chem. Phys. 152 154105 (2020);
          URL http://www.quantum-espresso.org", 
     in publications or presentations arising from this work. More details at
     http://www.quantum-espresso.org/quote

     Parallel version (MPI & OpenMP), running on      64 processor cores
     Number of MPI processes:                 4
     Threads/MPI process:                    16

     MPI processes distributed on     1 nodes
     235977 MiB available memory on the printing compute node when the environment starts
 
     Reading input from nscf.in

     Current dimensions of program PWSCF are:
     Max number of different atomic species (ntypx) = 10
     Max number of k-points (npk) =  40000
     Max angular momentum in pseudopotentials (lmaxx) =  4

     Atomic positions and unit cell read from directory:
     ./MoS2.save/
 
 
     K-points division:     npool     =       4
     Subspace diagonalization in iterative solution of the eigenvalue problem:
     a serial algorithm will be used

 
     G-vector sticks info
     --------------------
     sticks:   dense  smooth     PW     G-vecs:    dense   smooth      PW
     Sum         301     301    121                15631    15631    3877
 
     Using Slab Decomposition
 


     bravais-lattice index     =            4
     lattice parameter (alat)  =       5.9788  a.u.
     unit-cell volume          =     701.8911 (a.u.)^3
     number of atoms/cell      =            3
     number of atomic types    =            2
     number of electrons       =        26.00
     number of Kohn-Sham states=           82
     kinetic-energy cutoff     =      30.0000  Ry
     charge density cutoff     =     120.0000  Ry
     Exchange-correlation= PBE
                           (   1   4   3   4   0   0   0)
     Non magnetic calculation with spin-orbit


     GPU acceleration is ACTIVE.  4 visible GPUs per MPI rank


     celldm(1)=   5.978773  celldm(2)=   0.000000  celldm(3)=   3.792302
     celldm(4)=   0.000000  celldm(5)=   0.000000  celldm(6)=   0.000000

     crystal axes: (cart. coord. in units of alat)
               a(1) = (   1.000000   0.000000   0.000000 )  
               a(2) = (  -0.500000   0.866025   0.000000 )  
               a(3) = (   0.000000   0.000000   3.792302 )  

     reciprocal axes: (cart. coord. in units 2 pi/alat)
               b(1) = (  1.000000  0.577350 -0.000000 )  
               b(2) = (  0.000000  1.154701  0.000000 )  
               b(3) = (  0.000000 -0.000000  0.263692 )  


     PseudoPot. # 1 for Mo read from file:
     ./Mo.upf
     MD5 check sum: 4e1c3579de4f68baf863f15f5be96aa1
     Pseudo is Norm-conserving + core correction, Zval = 14.0
     Generated using ONCVPSP code by D. R. Hamann
     Using radial grid of 1640 points, 10 beta functions with: 
                l(1) =   0
                l(2) =   0
                l(3) =   1
                l(4) =   1
                l(5) =   1
                l(6) =   1
                l(7) =   2
                l(8) =   2
                l(9) =   2
               l(10) =   2

     PseudoPot. # 2 for S  read from file:
     ./S.upf
     MD5 check sum: a7319d53700e7dada26ada44d0048388
     Pseudo is Norm-conserving + core correction, Zval =  6.0
     Generated using ONCVPSP code by D. R. Hamann
     Using radial grid of 1146 points, 10 beta functions with: 
                l(1) =   0
                l(2) =   0
                l(3) =   1
                l(4) =   1
                l(5) =   1
                l(6) =   1
                l(7) =   2
                l(8) =   2
                l(9) =   2
               l(10) =   2

     atomic species   valence    mass     pseudopotential
     Mo               14.00    95.94000     Mo( 1.00)
     S                 6.00    32.07000     S ( 1.00)

     12 Sym. Ops. (no inversion) found



   Cartesian axes

     site n.     atom                  positions (alat units)
         1        Mo     tau(   1) = (   0.5000000   0.2886751   0.0000000  )
         2        S      tau(   2) = (  -0.0000000   0.5773503   0.5003108  )
         3        S      tau(   3) = (  -0.0000000   0.5773503  -0.5003108  )

     number of k points=     9
                       cart. coord. in units 2pi/alat
        k(    1) = (   0.0000000   0.0000000   0.0000000), wk =   0.1111111
        k(    2) = (   0.0000000   0.3849002   0.0000000), wk =   0.1111111
        k(    3) = (   0.0000000   0.7698004   0.0000000), wk =   0.1111111
        k(    4) = (   0.3333333   0.1924501   0.0000000), wk =   0.1111111
        k(    5) = (   0.3333333   0.5773503   0.0000000), wk =   0.1111111
        k(    6) = (   0.3333333   0.9622504   0.0000000), wk =   0.1111111
        k(    7) = (   0.6666667   0.3849002   0.0000000), wk =   0.1111111
        k(    8) = (   0.6666667   0.7698004   0.0000000), wk =   0.1111111
        k(    9) = (   0.6666667   1.1547005   0.0000000), wk =   0.1111111

     Dense  grid:    15631 G-vectors     FFT dimensions: (  24,  24,  80)

     Estimated max dynamical RAM per process >      68.80 MB

     Estimated total dynamical RAM >     275.18 MB
 ----2D----2D----2D----2D----2D----2D----2D----2D----2D----2D----2D----2D
  The code is running with the 2D cutoff
  Please refer to:
  Sohier, T., Calandra, M., & Mauri, F. (2017), 
  Density functional perturbation theory for gated two-dimensional heterostructures:
  Theoretical developments and application to flexural phonons in graphene.
  Physical Review B, 96(7), 75448. https://doi.org/10.1103/PhysRevB.96.075448
 ----2D----2D----2D----2D----2D----2D----2D----2D----2D----2D----2D----2D

     The potential is recalculated from file :
     ./MoS2.save/charge-density

     Starting wfcs are   36 randomized atomic wfcs +   46 random wfcs

     Band Structure Calculation
     Davidson diagonalization with overlap

     ethr =  3.85E-13,  avg # of iterations = 39.2

     total cpu time spent up to now is        3.4 secs

     End of band structure calculation

          k = 0.0000 0.0000 0.0000 (  1947 PWs)   bands (ev):

   -65.3717 -65.3717 -41.9951 -41.9951 -39.4954 -39.4954 -39.2707 -39.2707
   -19.4002 -19.4002 -18.2148 -18.2148 -10.8752 -10.8752  -7.8160  -7.8160
    -7.7601  -7.7601  -7.1449  -7.1449  -6.7794  -6.7794  -6.6987  -6.6987
    -5.3854  -5.3854  -2.5792  -2.5792  -2.5034  -2.5034  -2.3297  -2.3297
    -2.3238  -2.3238   1.1163   1.1163   3.7168   3.7168   3.9544   3.9544
     4.7795   4.7795   5.4880   5.4880   5.5641   5.5641   7.4638   7.4638
     7.4811   7.4811   7.6455   7.6455  10.7539  10.7539  10.7686  10.7686
    10.8507  10.8507  11.1081  11.1081  11.1149  11.1149  11.2426  11.2426
    14.0145  14.0145  14.2691  14.2691  14.6609  14.6609  16.0574  16.0574
    18.0831  18.0831  18.2585  18.2585  20.6038  20.6038  20.8217  20.8217
    20.8370  20.8370

          k = 0.0000 0.3849 0.0000 (  1963 PWs)   bands (ev):

   -65.3921 -65.3921 -42.0785 -42.0785 -39.5750 -39.5750 -39.4246 -39.4246
   -18.0850 -18.0850 -17.6392 -17.6392 -10.5262 -10.5262  -9.5675  -9.5675
    -9.1765  -9.1765  -8.1206  -8.1206  -7.0434  -7.0434  -6.5944  -6.5944
    -6.2896  -6.2896  -3.0543  -3.0543  -2.9526  -2.9526  -1.8610  -1.8610
    -1.2607  -1.2607   2.6525   2.6525   2.8941   2.8941   3.3078   3.3078
     5.1584   5.1584   5.5966   5.5966   7.1719   7.1719   7.6192   7.6192
     7.7234   7.7234   9.1461   9.1461   9.7163   9.7163  10.0687  10.0687
    10.1499  10.1499  12.3614  12.3614  13.5462  13.5462  13.8820  13.8820
    14.8466  14.8466  15.5967  15.5967  16.2945  16.2945  17.0566  17.0566
    17.2136  17.2136  17.6636  17.6636  19.4741  19.4741  19.5588  19.5588
    19.7700  19.7700

          k = 0.0000 0.7698 0.0000 (  1963 PWs)   bands (ev):

   -65.3921 -65.3921 -42.0785 -42.0785 -39.5750 -39.5750 -39.4246 -39.4246
   -18.0850 -18.0850 -17.6392 -17.6392 -10.5262 -10.5262  -9.5675  -9.5675
    -9.1765  -9.1765  -8.1206  -8.1206  -7.0434  -7.0434  -6.5944  -6.5944
    -6.2896  -6.2896  -3.0543  -3.0543  -2.9526  -2.9526  -1.8610  -1.8610
    -1.2607  -1.2607   2.6525   2.6525   2.8941   2.8941   3.3078   3.3078
     5.1584   5.1584   5.5966   5.5966   7.1719   7.1719   7.6192   7.6192
     7.7234   7.7234   9.1461   9.1461   9.7163   9.7163  10.0687  10.0687
    10.1499  10.1499  12.3614  12.3614  13.5462  13.5462  13.8820  13.8820
    14.8466  14.8466  15.5967  15.5967  16.2945  16.2945  17.0566  17.0566
    17.2136  17.2136  17.6636  17.6636  19.4741  19.4741  19.5588  19.5588
    19.7700  19.7700

          k = 0.3333 0.1925 0.0000 (  1963 PWs)   bands (ev):

   -65.3921 -65.3921 -42.0785 -42.0785 -39.5750 -39.5750 -39.4246 -39.4246
   -18.0850 -18.0850 -17.6392 -17.6392 -10.5262 -10.5262  -9.5675  -9.5675
    -9.1765  -9.1765  -8.1206  -8.1206  -7.0434  -7.0434  -6.5944  -6.5944
    -6.2896  -6.2896  -3.0543  -3.0543  -2.9526  -2.9526  -1.8610  -1.8610
    -1.2607  -1.2607   2.6525   2.6525   2.8941   2.8941   3.3078   3.3078
     5.1584   5.1584   5.5966   5.5966   7.1719   7.1719   7.6192   7.6192
     7.7234   7.7234   9.1461   9.1461   9.7163   9.7163  10.0687  10.0687
    10.1499  10.1499  12.3614  12.3614  13.5462  13.5462  13.8820  13.8820
    14.8466  14.8466  15.5967  15.5967  16.2945  16.2945  17.0566  17.0566
    17.2136  17.2136  17.6636  17.6636  19.4741  19.4741  19.5588  19.5588
    19.7700  19.7700

          k = 0.3333 0.5774 0.0000 (  1917 PWs)   bands (ev):

   -65.2888 -65.2888 -42.1203 -42.0981 -39.5806 -39.5367 -39.5328 -39.5208
   -17.2735 -17.2310 -17.2275 -17.2104 -10.7624 -10.7533  -9.9262  -9.8907
    -9.4426  -9.3832  -8.8650  -8.8399  -8.3141  -8.2645  -7.5875  -7.5659
    -5.3254  -5.1928  -3.4917  -3.4881  -2.3474  -2.3171  -1.7345  -1.6043
    -0.3926  -0.3159   2.0621   2.2001   2.5463   2.5495   4.7816   4.7916
     5.7956   5.8506   6.3592   6.3782   7.1510   7.1681   7.2756   7.3360
     7.6934   7.7232   7.7271   7.7461   9.0082   9.0082  10.5787  10.6404
    11.7324  11.7368  12.9561  12.9586  13.2797  13.3490  13.3782  13.5098
    14.0971  14.1028  14.8876  14.9030  15.4614  15.4805  17.7300  17.7447
    19.2704  19.2706  20.1267  20.1526  20.1972  20.2009  20.2171  20.2245
    20.4606  20.4756

          k = 0.3333 0.9623 0.0000 (  1963 PWs)   bands (ev):

   -65.3921 -65.3921 -42.0785 -42.0785 -39.5750 -39.5750 -39.4246 -39.4246
   -18.0850 -18.0850 -17.6392 -17.6392 -10.5262 -10.5262  -9.5675  -9.5675
    -9.1765  -9.1765  -8.1206  -8.1206  -7.0434  -7.0434  -6.5944  -6.5944
    -6.2896  -6.2896  -3.0543  -3.0543  -2.9526  -2.9526  -1.8610  -1.8610
    -1.2607  -1.2607   2.6525   2.6525   2.8941   2.8941   3.3078   3.3078
     5.1584   5.1584   5.5966   5.5966   7.1719   7.1719   7.6192   7.6192
     7.7234   7.7234   9.1461   9.1461   9.7163   9.7163  10.0687  10.0687
    10.1499  10.1499  12.3614  12.3614  13.5462  13.5462  13.8820  13.8820
    14.8466  14.8466  15.5967  15.5967  16.2945  16.2945  17.0566  17.0566
    17.2136  17.2136  17.6636  17.6636  19.4741  19.4741  19.5588  19.5588
    19.7700  19.7700

          k = 0.6667 0.3849 0.0000 (  1963 PWs)   bands (ev):

   -65.3921 -65.3921 -42.0785 -42.0785 -39.5750 -39.5750 -39.4246 -39.4246
   -18.0850 -18.0850 -17.6392 -17.6392 -10.5262 -10.5262  -9.5675  -9.5675
    -9.1765  -9.1765  -8.1206  -8.1206  -7.0434  -7.0434  -6.5944  -6.5944
    -6.2896  -6.2896  -3.0543  -3.0543  -2.9526  -2.9526  -1.8610  -1.8610
    -1.2607  -1.2607   2.6525   2.6525   2.8941   2.8941   3.3078   3.3078
     5.1584   5.1584   5.5966   5.5966   7.1719   7.1719   7.6192   7.6192
     7.7234   7.7234   9.1461   9.1461   9.7163   9.7163  10.0687  10.0687
    10.1499  10.1499  12.3614  12.3614  13.5462  13.5462  13.8820  13.8820
    14.8466  14.8466  15.5967  15.5967  16.2945  16.2945  17.0566  17.0566
    17.2136  17.2136  17.6636  17.6636  19.4741  19.4741  19.5588  19.5588
    19.7700  19.7700

          k = 0.6667 0.7698 0.0000 (  1963 PWs)   bands (ev):

   -65.3921 -65.3921 -42.0785 -42.0785 -39.5750 -39.5750 -39.4246 -39.4246
   -18.0850 -18.0850 -17.6392 -17.6392 -10.5262 -10.5262  -9.5675  -9.5675
    -9.1765  -9.1765  -8.1206  -8.1206  -7.0434  -7.0434  -6.5944  -6.5944
    -6.2896  -6.2896  -3.0543  -3.0543  -2.9526  -2.9526  -1.8610  -1.8610
    -1.2607  -1.2607   2.6525   2.6525   2.8941   2.8941   3.3078   3.3078
     5.1584   5.1584   5.5966   5.5966   7.1719   7.1719   7.6192   7.6192
     7.7234   7.7234   9.1461   9.1461   9.7163   9.7163  10.0687  10.0687
    10.1499  10.1499  12.3614  12.3614  13.5462  13.5462  13.8820  13.8820
    14.8466  14.8466  15.5967  15.5967  16.2945  16.2945  17.0566  17.0566
    17.2136  17.2136  17.6636  17.6636  19.4741  19.4741  19.5588  19.5588
    19.7700  19.7700

          k = 0.6667 1.1547 0.0000 (  1917 PWs)   bands (ev):

   -65.2888 -65.2888 -42.1203 -42.0981 -39.5806 -39.5367 -39.5328 -39.5208
   -17.2735 -17.2310 -17.2275 -17.2104 -10.7624 -10.7533  -9.9262  -9.8907
    -9.4426  -9.3832  -8.8650  -8.8399  -8.3141  -8.2645  -7.5875  -7.5659
    -5.3254  -5.1928  -3.4917  -3.4881  -2.3474  -2.3171  -1.7345  -1.6043
    -0.3926  -0.3159   2.0621   2.2001   2.5463   2.5495   4.7816   4.7916
     5.7956   5.8506   6.3592   6.3782   7.1510   7.1681   7.2756   7.3360
     7.6934   7.7232   7.7271   7.7461   9.0082   9.0082  10.5787  10.6404
    11.7324  11.7368  12.9561  12.9586  13.2797  13.3490  13.3782  13.5098
    14.0971  14.1028  14.8876  14.9030  15.4614  15.4805  17.7300  17.7447
    19.2704  19.2706  20.1267  20.1526  20.1972  20.2009  20.2171  20.2245
    20.4606  20.4756

     highest occupied, lowest unoccupied level (ev):    -5.1928   -3.4917

     Writing all to output data dir ./MoS2.save/ :
     XML data file, pseudopotentials, collected wavefunctions
 
     init_run     :      0.14s CPU      0.22s WALL (       1 calls)
     electrons    :      2.65s CPU      2.88s WALL (       1 calls)

     Called by init_run:
     wfcinit      :      0.00s CPU      0.00s WALL (       1 calls)
     potinit      :      0.01s CPU      0.05s WALL (       1 calls)
     hinit0       :      0.13s CPU      0.13s WALL (       1 calls)

     Called by electrons:
     c_bands      :      2.65s CPU      2.88s WALL (       1 calls)
     v_of_rho     :      0.01s CPU      0.05s WALL (       1 calls)

     Called by c_bands:
     init_us_2    :      0.00s CPU      0.00s WALL (       3 calls)
     cegterg      :      2.39s CPU      2.45s WALL (       7 calls)

     Called by *egterg:
     cdiaghg      :      0.49s CPU      0.52s WALL (     117 calls)
                                        0.52s GPU  (     117 calls)
     h_psi        :      1.97s CPU      2.04s WALL (     124 calls)
                                        2.04s GPU  (     124 calls)
     g_psi        :      0.00s CPU      0.00s WALL (     114 calls)
                                        0.00s GPU  (     114 calls)

     Called by h_psi:
     h_psi:calbec :      0.06s CPU      0.08s WALL (     124 calls)
                                        0.08s GPU  (     124 calls)
     vloc_psi     :      1.88s CPU      1.93s WALL (     124 calls)
                                        1.93s GPU  (     124 calls)
     add_vuspsi   :      0.01s CPU      0.02s WALL (     124 calls)
                                        0.02s GPU  (     124 calls)

     General routines
     calbec       :      0.06s CPU      0.08s WALL (     124 calls)
     fft          :      0.00s CPU      0.04s WALL (      14 calls)
                                        0.04s GPU  (      14 calls)
     fftw         :      0.18s CPU      0.54s WALL (   20484 calls)
                                        0.41s GPU  (   20484 calls)
     davcio       :      0.02s CPU      0.02s WALL (       6 calls)
 
     Parallel routines
 
     PWSCF        :      3.10s CPU      3.46s WALL

 
   This run was terminated on:  12:12:11   9May2026            

=------------------------------------------------------------------------------=
   JOB DONE.
=------------------------------------------------------------------------------=
Warning: ieee_inexact is signaling
FORTRAN STOP
Warning: ieee_inexact is signaling
FORTRAN STOP
Warning: ieee_inexact is signaling
FORTRAN STOP
Warning: ieee_inexact is signaling
FORTRAN STOP
