&control
   prefix = 'MoS2'
   pseudo_dir = './'
   calculation = 'nscf'
/
&system
   ecutwfc = 30.0
   ibrav = 4
   celldm(1) = 5.978773
   celldm(3) = 3.792302
   nat = 3
   ntyp = 2
   noncolin = .true.
   lspinorb = .true.
   no_t_rev = .true.
   nbnd = 82
   assume_isolated = '2D'
/
&electrons
   electron_maxstep = 100
   conv_thr = 1e-10
   mixing_mode = 'plain'
   mixing_beta = 0.7
   mixing_ndim = 8
   diagonalization = 'david'
   diago_david_ndim = 4
   diago_full_acc = .true.
/

ATOMIC_SPECIES
   Mo 95.94 'Mo.upf'
   S  32.07 'S.upf'

ATOMIC_POSITIONS crystal
   Mo  0.6666666666666667  0.3333333333333333  0.000000
   S   0.3333333333333333  0.6666666666666667  0.131928
   S   0.3333333333333333  0.6666666666666667 -0.131928

K_POINTS crystal
    9
  0.000000000  0.000000000  0.000000000   1.0
  0.000000000  0.333333333  0.000000000   1.0
  0.000000000  0.666666667  0.000000000   1.0
  0.333333333  0.000000000  0.000000000   1.0
  0.333333333  0.333333333  0.000000000   1.0
  0.333333333  0.666666667  0.000000000   1.0
  0.666666667  0.000000000  0.000000000   1.0
  0.666666667  0.333333333  0.000000000   1.0
  0.666666667  0.666666667  0.000000000   1.0
