
     Program PWSCF v.7.3.1 starts on  5Apr2026 at 16:46:24 
        Git branch: HEAD
        Last git commit: 7fd60c9bc9fe7a7d1fe6f1049f4afba0eab9aeef-dirty
        Last git commit date: Thu Feb 29 10:18:05 2024 +0000
        Last git commit subject: Merge branch 'master_qe_7.3.1' into 'master'

     This program is part of the open-source Quantum ESPRESSO suite
     for quantum simulation of materials; please cite
         "P. Giannozzi et al., J. Phys.:Condens. Matter 21 395502 (2009);
         "P. Giannozzi et al., J. Phys.:Condens. Matter 29 465901 (2017);
         "P. Giannozzi et al., J. Chem. Phys. 152 154105 (2020);
          URL http://www.quantum-espresso.org", 
     in publications or presentations arising from this work. More details at
     http://www.quantum-espresso.org/quote

     Parallel version (MPI & OpenMP), running on      64 processor cores
     Number of MPI processes:                 4
     Threads/MPI process:                    16

     MPI processes distributed on     1 nodes
     238179 MiB available memory on the printing compute node when the environment starts
 
     Reading input from scf.in

     Current dimensions of program PWSCF are:
     Max number of different atomic species (ntypx) = 10
     Max number of k-points (npk) =  40000
     Max angular momentum in pseudopotentials (lmaxx) =  4
     Message from routine setup:
     using ibrav=0 with symmetry is DISCOURAGED, use correct ibrav instead
 
     K-points division:     npool     =       4
     Subspace diagonalization in iterative solution of the eigenvalue problem:
     a serial algorithm will be used

 
     G-vector sticks info
     --------------------
     sticks:   dense  smooth     PW     G-vecs:    dense   smooth      PW
     Sum         301     301    109                15631    15631    3323
 
     Using Slab Decomposition
 


     bravais-lattice index     =            0
     lattice parameter (alat)  =       5.9796  a.u.
     unit-cell volume          =     702.2012 (a.u.)^3
     number of atoms/cell      =            3
     number of atomic types    =            2
     number of electrons       =        26.00
     number of Kohn-Sham states=           34
     kinetic-energy cutoff     =      30.0000  Ry
     charge density cutoff     =     120.0000  Ry
     scf convergence threshold =      1.0E-10
     mixing beta               =       0.7000
     number of iterations used =            8  plain     mixing
     Exchange-correlation= PBE
                           (   1   4   3   4   0   0   0)
     Non magnetic calculation with spin-orbit


     GPU acceleration is ACTIVE.  4 visible GPUs per MPI rank


     celldm(1)=   5.979645  celldm(2)=   0.000000  celldm(3)=   0.000000
     celldm(4)=   0.000000  celldm(5)=   0.000000  celldm(6)=   0.000000

     crystal axes: (cart. coord. in units of alat)
               a(1) = (   1.000000   0.000000   0.000000 )  
               a(2) = (  -0.499999   0.866025   0.000000 )  
               a(3) = (   0.000000   0.000000   3.792318 )  

     reciprocal axes: (cart. coord. in units 2 pi/alat)
               b(1) = (  1.000000  0.577349 -0.000000 )  
               b(2) = (  0.000000  1.154701  0.000000 )  
               b(3) = (  0.000000 -0.000000  0.263691 )  


     PseudoPot. # 1 for Mo read from file:
     ./Mo.upf
     MD5 check sum: 4e1c3579de4f68baf863f15f5be96aa1
     Pseudo is Norm-conserving + core correction, Zval = 14.0
     Generated using ONCVPSP code by D. R. Hamann
     Using radial grid of 1640 points, 10 beta functions with: 
                l(1) =   0
                l(2) =   0
                l(3) =   1
                l(4) =   1
                l(5) =   1
                l(6) =   1
                l(7) =   2
                l(8) =   2
                l(9) =   2
               l(10) =   2

     PseudoPot. # 2 for S  read from file:
     ./S.upf
     MD5 check sum: a7319d53700e7dada26ada44d0048388
     Pseudo is Norm-conserving + core correction, Zval =  6.0
     Generated using ONCVPSP code by D. R. Hamann
     Using radial grid of 1146 points, 10 beta functions with: 
                l(1) =   0
                l(2) =   0
                l(3) =   1
                l(4) =   1
                l(5) =   1
                l(6) =   1
                l(7) =   2
                l(8) =   2
                l(9) =   2
               l(10) =   2

     atomic species   valence    mass     pseudopotential
     Mo               14.00    95.94000     Mo( 1.00)
     S                 6.00    32.07000     S ( 1.00)

      2 Sym. Ops. (no inversion) found



   Cartesian axes

     site n.     atom                  positions (alat units)
         1        Mo     tau(   1) = (   0.5000009   0.2886748   0.0000000  )
         2        S      tau(   2) = (   0.0000003   0.5773505   0.5003129  )
         3        S      tau(   3) = (   0.0000003   0.5773505  -0.5003129  )

     number of k points=    10
                       cart. coord. in units 2pi/alat
        k(    1) = (   0.0000000   0.0000000   0.0000000), wk =   0.0625000
        k(    2) = (   0.0000000   0.2886752   0.0000000), wk =   0.1250000
        k(    3) = (   0.0000000  -0.5773503   0.0000000), wk =   0.0625000
        k(    4) = (   0.2500000   0.1443372   0.0000000), wk =   0.1250000
        k(    5) = (   0.2500000   0.4330124   0.0000000), wk =   0.1250000
        k(    6) = (   0.2500000  -0.4330131   0.0000000), wk =   0.1250000
        k(    7) = (   0.2500000  -0.1443379   0.0000000), wk =   0.1250000
        k(    8) = (  -0.5000000  -0.2886744   0.0000000), wk =   0.0625000
        k(    9) = (  -0.5000000   0.0000007   0.0000000), wk =   0.1250000
        k(   10) = (  -0.5000000  -0.8660248   0.0000000), wk =   0.0625000

     Dense  grid:    15631 G-vectors     FFT dimensions: (  24,  24,  80)

     Estimated max dynamical RAM per process >      62.58 MB

     Estimated total dynamical RAM >     204.51 MB
 ----2D----2D----2D----2D----2D----2D----2D----2D----2D----2D----2D----2D
  The code is running with the 2D cutoff
  Please refer to:
  Sohier, T., Calandra, M., & Mauri, F. (2017), 
  Density functional perturbation theory for gated two-dimensional heterostructures:
  Theoretical developments and application to flexural phonons in graphene.
  Physical Review B, 96(7), 75448. https://doi.org/10.1103/PhysRevB.96.075448
 ----2D----2D----2D----2D----2D----2D----2D----2D----2D----2D----2D----2D

     Initial potential from superposition of free atoms

     starting charge      25.9985, renormalised to      26.0000

     negative rho (up, down):  2.017E-03 0.000E+00
     Starting wfcs are   36 randomized atomic wfcs

     total cpu time spent up to now is        1.1 secs

     per-process dynamical memory:   315.0 Mb

     Self-consistent Calculation

     iteration #  1     ecut=    30.00 Ry     beta= 0.70
     Davidson diagonalization with overlap
     ethr =  1.00E-02,  avg # of iterations =  3.3

     negative rho (up, down):  4.464E-04 0.000E+00

     total cpu time spent up to now is        1.3 secs

     total energy              =    -184.01747376 Ry
     estimated scf accuracy    <       0.59990356 Ry

     iteration #  2     ecut=    30.00 Ry     beta= 0.70
     Davidson diagonalization with overlap
     ethr =  2.31E-03,  avg # of iterations =  3.1

     negative rho (up, down):  3.607E-04 0.000E+00

     total cpu time spent up to now is        1.5 secs

     total energy              =    -183.43047427 Ry
     estimated scf accuracy    <       6.22306439 Ry

     iteration #  3     ecut=    30.00 Ry     beta= 0.70
     Davidson diagonalization with overlap
     ethr =  2.31E-03,  avg # of iterations =  3.0

     negative rho (up, down):  1.391E-04 0.000E+00

     total cpu time spent up to now is        1.7 secs

     total energy              =    -184.33923337 Ry
     estimated scf accuracy    <       0.17563332 Ry

     iteration #  4     ecut=    30.00 Ry     beta= 0.70
     Davidson diagonalization with overlap
     ethr =  6.76E-04,  avg # of iterations =  2.0

     negative rho (up, down):  9.415E-06 0.000E+00

     total cpu time spent up to now is        1.8 secs

     total energy              =    -184.35317119 Ry
     estimated scf accuracy    <       0.01091398 Ry

     iteration #  5     ecut=    30.00 Ry     beta= 0.70
     Davidson diagonalization with overlap
     ethr =  4.20E-05,  avg # of iterations =  3.3

     total cpu time spent up to now is        2.0 secs

     total energy              =    -184.35618793 Ry
     estimated scf accuracy    <       0.00231047 Ry

     iteration #  6     ecut=    30.00 Ry     beta= 0.70
     Davidson diagonalization with overlap
     ethr =  8.89E-06,  avg # of iterations =  2.0

     total cpu time spent up to now is        2.2 secs

     total energy              =    -184.35633910 Ry
     estimated scf accuracy    <       0.00014627 Ry

     iteration #  7     ecut=    30.00 Ry     beta= 0.70
     Davidson diagonalization with overlap
     ethr =  5.63E-07,  avg # of iterations =  3.3

     total cpu time spent up to now is        2.4 secs

     total energy              =    -184.35637289 Ry
     estimated scf accuracy    <       0.00001269 Ry

     iteration #  8     ecut=    30.00 Ry     beta= 0.70
     Davidson diagonalization with overlap
     ethr =  4.88E-08,  avg # of iterations =  2.0

     total cpu time spent up to now is        2.5 secs

     total energy              =    -184.35637444 Ry
     estimated scf accuracy    <       0.00000048 Ry

     iteration #  9     ecut=    30.00 Ry     beta= 0.70
     Davidson diagonalization with overlap
     ethr =  1.84E-09,  avg # of iterations =  3.3

     total cpu time spent up to now is        2.7 secs

     total energy              =    -184.35637461 Ry
     estimated scf accuracy    <       0.00000005 Ry

     iteration # 10     ecut=    30.00 Ry     beta= 0.70
     Davidson diagonalization with overlap
     ethr =  2.04E-10,  avg # of iterations =  2.5

     total cpu time spent up to now is        2.9 secs

     total energy              =    -184.35637462 Ry
     estimated scf accuracy    <          5.1E-10 Ry

     iteration # 11     ecut=    30.00 Ry     beta= 0.70
     Davidson diagonalization with overlap
     ethr =  1.97E-12,  avg # of iterations =  3.4

     total cpu time spent up to now is        3.1 secs

     End of self-consistent calculation

          k = 0.0000 0.0000 0.0000 (  1947 PWs)   bands (ev):

   -65.4610 -65.4610 -42.0769 -42.0769 -39.5547 -39.5547 -39.3834 -39.3834
   -19.3741 -19.3741 -18.1773 -18.1773 -10.8758 -10.8758  -7.8617  -7.8617
    -7.8026  -7.8026  -7.1219  -7.1219  -6.7808  -6.7808  -6.6999  -6.6999
    -5.3814  -5.3814  -2.5747  -2.5747  -2.4989  -2.4989  -2.3339  -2.3339
    -2.3257  -2.3257

          k = 0.0000 0.2887 0.0000 (  1947 PWs)   bands (ev):

   -65.4532 -65.4532 -42.1313 -42.1313 -39.5992 -39.5992 -39.4885 -39.4885
   -18.5456 -18.5456 -17.8149 -17.8149 -10.2738 -10.2738  -9.0400  -9.0400
    -8.9139  -8.9139  -7.7429  -7.7429  -7.0052  -7.0052  -6.6818  -6.6818
    -6.0905  -6.0905  -3.1595  -3.1595  -2.9585  -2.9585  -2.3563  -2.3563
    -1.5448  -1.5448

          k = 0.0000-0.5774 0.0000 (  1964 PWs)   bands (ev):

   -65.4774 -65.4774 -42.1939 -42.1939 -39.7111 -39.7111 -39.5226 -39.5226
   -17.4927 -17.4927 -17.3728 -17.3728 -11.0717 -11.0717 -10.1762 -10.1762
    -9.3962  -9.3962  -8.4351  -8.4351  -7.2874  -7.2874  -6.2298  -6.2298
    -5.9592  -5.9592  -3.0341  -3.0341  -2.5196  -2.5196  -1.4417  -1.4417
    -1.0502  -1.0502

          k = 0.2500 0.1443 0.0000 (  1947 PWs)   bands (ev):

   -65.4532 -65.4532 -42.1313 -42.1313 -39.5992 -39.5992 -39.4885 -39.4885
   -18.5456 -18.5456 -17.8149 -17.8149 -10.2738 -10.2738  -9.0400  -9.0400
    -8.9139  -8.9139  -7.7429  -7.7429  -7.0052  -7.0052  -6.6818  -6.6818
    -6.0905  -6.0905  -3.1595  -3.1595  -2.9585  -2.9585  -2.3563  -2.3563
    -1.5447  -1.5447

          k = 0.2500 0.4330 0.0000 (  1933 PWs)   bands (ev):

   -65.4173 -65.4173 -42.1936 -42.1765 -39.6805 -39.6557 -39.5545 -39.5543
   -17.5429 -17.4977 -17.3509 -17.3473 -10.4141 -10.4111 -10.2566 -10.2445
    -8.8800  -8.8748  -8.6140  -8.5948  -8.2539  -8.1976  -7.0258  -7.0152
    -5.8667  -5.7646  -3.1228  -3.1152  -2.4591  -2.3579  -2.2537  -2.2433
    -0.7098  -0.6715

          k = 0.2500-0.4330 0.0000 (  1933 PWs)   bands (ev):

   -65.4173 -65.4173 -42.1936 -42.1765 -39.6805 -39.6557 -39.5545 -39.5543
   -17.5429 -17.4977 -17.3509 -17.3473 -10.4142 -10.4111 -10.2566 -10.2445
    -8.8800  -8.8748  -8.6140  -8.5948  -8.2539  -8.1976  -7.0258  -7.0152
    -5.8667  -5.7646  -3.1228  -3.1152  -2.4591  -2.3579  -2.2537  -2.2433
    -0.7098  -0.6715

          k = 0.2500-0.1443 0.0000 (  1947 PWs)   bands (ev):

   -65.4532 -65.4532 -42.1313 -42.1313 -39.5992 -39.5992 -39.4885 -39.4885
   -18.5456 -18.5456 -17.8149 -17.8149 -10.2738 -10.2738  -9.0400  -9.0400
    -8.9139  -8.9139  -7.7429  -7.7429  -7.0052  -7.0052  -6.6818  -6.6818
    -6.0905  -6.0905  -3.1595  -3.1595  -2.9585  -2.9585  -2.3563  -2.3563
    -1.5447  -1.5447

          k =-0.5000-0.2887 0.0000 (  1964 PWs)   bands (ev):

   -65.4774 -65.4774 -42.1939 -42.1939 -39.7111 -39.7111 -39.5226 -39.5226
   -17.4927 -17.4927 -17.3728 -17.3728 -11.0717 -11.0717 -10.1762 -10.1762
    -9.3962  -9.3962  -8.4351  -8.4351  -7.2874  -7.2874  -6.2298  -6.2298
    -5.9592  -5.9592  -3.0341  -3.0341  -2.5196  -2.5196  -1.4417  -1.4417
    -1.0502  -1.0502

          k =-0.5000 0.0000 0.0000 (  1933 PWs)   bands (ev):

   -65.4173 -65.4173 -42.1936 -42.1765 -39.6805 -39.6557 -39.5545 -39.5543
   -17.5429 -17.4977 -17.3509 -17.3473 -10.4142 -10.4111 -10.2566 -10.2445
    -8.8800  -8.8748  -8.6140  -8.5947  -8.2539  -8.1976  -7.0258  -7.0152
    -5.8667  -5.7646  -3.1228  -3.1152  -2.4591  -2.3579  -2.2536  -2.2433
    -0.7098  -0.6715

          k =-0.5000-0.8660 0.0000 (  1964 PWs)   bands (ev):

   -65.4774 -65.4774 -42.1939 -42.1939 -39.7111 -39.7111 -39.5226 -39.5226
   -17.4927 -17.4927 -17.3728 -17.3728 -11.0717 -11.0717 -10.1763 -10.1763
    -9.3962  -9.3962  -8.4352  -8.4352  -7.2874  -7.2874  -6.2298  -6.2298
    -5.9592  -5.9592  -3.0340  -3.0340  -2.5196  -2.5196  -1.4417  -1.4417
    -1.0502  -1.0502

     highest occupied, lowest unoccupied level (ev):    -5.3814   -3.1595

!    total energy              =    -184.35637462 Ry
     estimated scf accuracy    <          4.1E-11 Ry

     The total energy is the sum of the following terms:
     one-electron contribution =    -881.05884977 Ry
     hartree contribution      =     436.72047369 Ry
     xc contribution           =     -33.29284089 Ry
     ewald contribution        =     293.27484235 Ry

     convergence has been achieved in  11 iterations

     Writing all to output data dir ./MoS2.save/ :
     XML data file, charge density, pseudopotentials, collected wavefunctions
 
     init_run     :      0.29s CPU      0.68s WALL (       1 calls)
     electrons    :      1.91s CPU      2.06s WALL (       1 calls)

     Called by init_run:
     wfcinit      :      0.12s CPU      0.43s WALL (       1 calls)
     potinit      :      0.03s CPU      0.07s WALL (       1 calls)
     hinit0       :      0.13s CPU      0.15s WALL (       1 calls)

     Called by electrons:
     c_bands      :      1.55s CPU      1.64s WALL (      11 calls)
     sum_band     :      0.24s CPU      0.24s WALL (      11 calls)
     v_of_rho     :      0.02s CPU      0.07s WALL (      12 calls)
     mix_rho      :      0.09s CPU      0.10s WALL (      11 calls)

     Called by c_bands:
     init_us_2    :      0.01s CPU      0.02s WALL (      69 calls)
     cegterg      :      1.46s CPU      1.52s WALL (      33 calls)

     Called by *egterg:
     cdiaghg      :      0.23s CPU      0.41s WALL (     126 calls)
                                        0.41s GPU  (     126 calls)
     h_psi        :      1.27s CPU      1.42s WALL (     129 calls)
                                        1.42s GPU  (     129 calls)
     g_psi        :      0.00s CPU      0.00s WALL (      93 calls)
                                        0.00s GPU  (      93 calls)

     Called by h_psi:
     h_psi:calbec :      0.05s CPU      0.15s WALL (     129 calls)
                                        0.15s GPU  (     129 calls)
     vloc_psi     :      1.19s CPU      1.23s WALL (     129 calls)
                                        1.23s GPU  (     129 calls)
     add_vuspsi   :      0.01s CPU      0.02s WALL (     129 calls)
                                        0.02s GPU  (     129 calls)

     General routines
     calbec       :      0.05s CPU      0.15s WALL (     129 calls)
     fft          :      0.01s CPU      0.06s WALL (     186 calls)
                                        0.06s GPU  (     186 calls)
     ffts         :      0.00s CPU      0.00s WALL (      44 calls)
                                        0.00s GPU  (      44 calls)
     fftw         :      0.13s CPU      0.40s WALL (   15244 calls)
                                        0.30s GPU  (   15244 calls)
 
     Parallel routines
 
     PWSCF        :      2.47s CPU      3.17s WALL

 
   This run was terminated on:  16:46:27   5Apr2026            

=------------------------------------------------------------------------------=
   JOB DONE.
=------------------------------------------------------------------------------=
Warning: ieee_inexact is signaling
FORTRAN STOP
Warning: ieee_inexact is signaling
FORTRAN STOP
Warning: ieee_inexact is signaling
FORTRAN STOP
Warning: ieee_inexact is signaling
FORTRAN STOP
