
     Program PWSCF v.7.5 starts on 16Jun2026 at 12:16: 7 

     This program is part of the open-source Quantum ESPRESSO suite
     for quantum simulation of materials; please cite
         "P. Giannozzi et al., J. Phys.:Condens. Matter 21 395502 (2009);
         "P. Giannozzi et al., J. Phys.:Condens. Matter 29 465901 (2017);
         "P. Giannozzi et al., J. Chem. Phys. 152 154105 (2020);
          URL http://www.quantum-espresso.org", 
     in publications or presentations arising from this work. More details at
     http://www.quantum-espresso.org/quote

     Parallel version (MPI & OpenMP), running on      64 processor cores
     Number of MPI processes:                 4
     Threads/MPI process:                    16

     MPI processes distributed on     1 nodes
     237113 MiB available memory on the printing compute node when the environment starts
 
     Reading input from nscf.in

     Current dimensions of program PWSCF are:
     Max number of different atomic species (ntypx) = 10
     Max number of k-points (npk) =  40000
     Max angular momentum in pseudopotentials (lmaxx) =  4

     Atomic positions and unit cell read from directory:
     ./CrI3.save/
 

     Fixed quantization axis for GGA:     0.000000    0.000000    1.000000
     Message from routine setup:
     using ibrav=0 with symmetry is DISCOURAGED, use correct ibrav instead
 
     K-points division:     npool     =       4
     Subspace diagonalization in iterative solution of the eigenvalue problem:
     a serial algorithm will be used

 
     G-vector sticks info
     --------------------
     sticks:   dense  smooth     PW     G-vecs:    dense   smooth      PW
     Sum        1393    1393    379               110147   110147   16329
 
     Using Slab Decomposition
 


     bravais-lattice index     =            0
     lattice parameter (alat)  =      12.9767  a.u.
     unit-cell volume          =    4960.5953 (a.u.)^3
     number of atoms/cell      =            8
     number of atomic types    =            2
     number of electrons       =        70.00
     number of Kohn-Sham states=          180
     kinetic-energy cutoff     =      30.0000  Ry
     charge density cutoff     =     120.0000  Ry
     Exchange-correlation= PBE
                           (   1   4   3   4   0   0   0)
     Noncollinear calculation with spin-orbit


     GPU acceleration is ACTIVE.  4 visible GPUs per MPI rank


     GPU used by master process:

        Device Number: 0
        Device name: NVIDIA A100-SXM4-40GB
        Compute capability : 80
        Ratio of single to double precision performance  : 2
        Memory Clock Rate (KHz): 1215000
        Memory Bus Width (bits): 5120
        Peak Memory Bandwidth (GB/s): ******

     celldm(1)=  12.976749  celldm(2)=   0.000000  celldm(3)=   0.000000
     celldm(4)=   0.000000  celldm(5)=   0.000000  celldm(6)=   0.000000

     crystal axes: (cart. coord. in units of alat)
               a(1) = (   1.000000   0.000000   0.000000 )  
               a(2) = (  -0.500000   0.866025   0.000000 )  
               a(3) = (   0.000000   0.000000   2.621232 )  

     reciprocal axes: (cart. coord. in units 2 pi/alat)
               b(1) = (  1.000000  0.577350 -0.000000 )  
               b(2) = (  0.000000  1.154701  0.000000 )  
               b(3) = (  0.000000 -0.000000  0.381500 )  


     PseudoPot. # 1 for Cr read from file:
     ./Cr.upf
     MD5 check sum: e4755fb39f753e55e5d2a46de4395b17
     Pseudo is Norm-conserving + core correction, Zval = 14.0
     Generated using ONCVPSP code by D. R. Hamann
     Using radial grid of 1638 points, 10 beta functions with: 
                l(1) =   0
                l(2) =   0
                l(3) =   1
                l(4) =   1
                l(5) =   1
                l(6) =   1
                l(7) =   2
                l(8) =   2
                l(9) =   2
               l(10) =   2

     PseudoPot. # 2 for I  read from file:
     ./I.upf
     MD5 check sum: 301f7009ca0a2b18b0adf53dca02d42f
     Pseudo is Norm-conserving + core correction, Zval =  7.0
     Generated using ONCVPSP code by D. R. Hamann
     Using radial grid of 1210 points, 10 beta functions with: 
                l(1) =   0
                l(2) =   0
                l(3) =   1
                l(4) =   1
                l(5) =   1
                l(6) =   1
                l(7) =   2
                l(8) =   2
                l(9) =   2
               l(10) =   2

     atomic species   valence    mass     pseudopotential
     Cr               14.00    51.99600     Cr( 1.00)
     I                 7.00   126.90400     I ( 1.00)

      6 Sym. Ops., with inversion, found


                                    s                        frac. trans.

      isym =  1     identity                                     

 Time Reversal             0
 cryst.   s( 1) = (     1          0          0      )
                  (     0          1          0      )
                  (     0          0          1      )

 cart.    s( 1) = (  1.0000000 -0.0000000  0.0000000 )
                  (  0.0000000  1.0000000  0.0000000 )
                  (  0.0000000  0.0000000  1.0000000 )


      isym =  2     120 deg rotation - cryst. axis [0,0,1]       

 Time Reversal             0
 cryst.   s( 2) = (     0          1          0      )
                  (    -1         -1          0      )
                  (     0          0          1      )

 cart.    s( 2) = ( -0.5000000 -0.8660255  0.0000000 )
                  (  0.8660253 -0.5000000  0.0000000 )
                  (  0.0000000  0.0000000  1.0000000 )


      isym =  3     120 deg rotation - cryst. axis [0,0,-1]      

 Time Reversal             0
 cryst.   s( 3) = (    -1         -1          0      )
                  (     1          0          0      )
                  (     0          0          1      )

 cart.    s( 3) = ( -0.5000000  0.8660255  0.0000000 )
                  ( -0.8660253 -0.5000000  0.0000000 )
                  (  0.0000000  0.0000000  1.0000000 )


      isym =  4     inversion                                    

 Time Reversal             0
 cryst.   s( 4) = (    -1          0          0      )
                  (     0         -1          0      )
                  (     0          0         -1      )

 cart.    s( 4) = ( -1.0000000  0.0000000  0.0000000 )
                  (  0.0000000 -1.0000000  0.0000000 )
                  (  0.0000000  0.0000000 -1.0000000 )


      isym =  5     inv. 120 deg rotation - cryst. axis [0,0,1]  

 Time Reversal             0
 cryst.   s( 5) = (     0         -1          0      )
                  (     1          1          0      )
                  (     0          0         -1      )

 cart.    s( 5) = (  0.5000000  0.8660255  0.0000000 )
                  ( -0.8660253  0.5000000  0.0000000 )
                  (  0.0000000  0.0000000 -1.0000000 )


      isym =  6     inv. 120 deg rotation - cryst. axis [0,0,-1] 

 Time Reversal             0
 cryst.   s( 6) = (     1          1          0      )
                  (    -1          0          0      )
                  (     0          0         -1      )

 cart.    s( 6) = (  0.5000000 -0.8660255  0.0000000 )
                  (  0.8660253  0.5000000  0.0000000 )
                  (  0.0000000  0.0000000 -1.0000000 )


   Cartesian axes

     site n.     atom                  positions (alat units)
         1        Cr     tau(   1) = (  -0.0000000   0.5773502   0.0009902  )
         2        Cr     tau(   2) = (   0.5000000   0.2886751   2.6202417  )
         3        I      tau(   3) = (  -0.1495050   0.8649890   2.3934629  )
         4        I      tau(   4) = (  -0.1743500   0.3040557   2.3934629  )
         5        I      tau(   5) = (   0.3238550   0.5630060   2.3934629  )
         6        I      tau(   6) = (   0.6495050   0.0010363   0.2277690  )
         7        I      tau(   7) = (   0.6743500   0.5619696   0.2277690  )
         8        I      tau(   8) = (   0.1761450   0.3030194   0.2277690  )

   Crystallographic axes

     site n.     atom                  positions (cryst. coord.)
         1        Cr     tau(   1) = (  0.3333333  0.6666667  0.0003778  )
         2        Cr     tau(   2) = (  0.6666667  0.3333333  0.9996222  )
         3        I      tau(   3) = (  0.3498967  0.9988033  0.9131061  )
         4        I      tau(   4) = (  0.0011967  0.3510934  0.9131061  )
         5        I      tau(   5) = (  0.6489066  0.6501033  0.9131061  )
         6        I      tau(   6) = (  0.6501033  0.0011967  0.0868939  )
         7        I      tau(   7) = (  0.9988033  0.6489066  0.0868939  )
         8        I      tau(   8) = (  0.3510934  0.3498967  0.0868939  )

     number of k points=    26
                       cart. coord. in units 2pi/alat
        k(    1) = (   0.0000000   0.0000000   0.0000000), wk =   0.0069444
        k(    2) = (   0.0000000   0.0962251   0.0000000), wk =   0.0416667
        k(    3) = (   0.0000000   0.1924501   0.0000000), wk =   0.0416667
        k(    4) = (   0.0000000   0.2886752   0.0000000), wk =   0.0416667
        k(    5) = (   0.0000000   0.3849002   0.0000000), wk =   0.0416667
        k(    6) = (   0.0000000   0.4811253   0.0000000), wk =   0.0416667
        k(    7) = (   0.0000000  -0.5773503   0.0000000), wk =   0.0208333
        k(    8) = (   0.0833333   0.1443376   0.0000000), wk =   0.0416667
        k(    9) = (   0.0833333   0.2405626   0.0000000), wk =   0.0416667
        k(   10) = (   0.0833333   0.3367877   0.0000000), wk =   0.0416667
        k(   11) = (   0.0833333   0.4330127   0.0000000), wk =   0.0416667
        k(   12) = (   0.0833333   0.5292378   0.0000000), wk =   0.0416667
        k(   13) = (   0.1666667   0.2886752   0.0000000), wk =   0.0416667
        k(   14) = (   0.1666667   0.3849002   0.0000000), wk =   0.0416667
        k(   15) = (   0.1666667   0.4811253   0.0000000), wk =   0.0416667
        k(   16) = (   0.1666667   0.5773503   0.0000000), wk =   0.0416667
        k(   17) = (   0.2500000   0.4330127   0.0000000), wk =   0.0416667
        k(   18) = (   0.2500000   0.5292378   0.0000000), wk =   0.0416667
        k(   19) = (   0.3333333   0.5773503   0.0000000), wk =   0.0138889
        k(   20) = (  -0.0833333   0.2405626   0.0000000), wk =   0.0416667
        k(   21) = (  -0.0833333   0.3367877   0.0000000), wk =   0.0416667
        k(   22) = (  -0.0833333   0.4330127   0.0000000), wk =   0.0416667
        k(   23) = (  -0.0833333   0.5292378   0.0000000), wk =   0.0416667
        k(   24) = (  -0.1666667   0.3849002   0.0000000), wk =   0.0416667
        k(   25) = (  -0.1666667   0.4811253   0.0000000), wk =   0.0416667
        k(   26) = (  -0.2500000   0.5292378   0.0000000), wk =   0.0416667

                       cryst. coord.
        k(    1) = (   0.0000000   0.0000000   0.0000000), wk =   0.0069444
        k(    2) = (   0.0000000   0.0833333   0.0000000), wk =   0.0416667
        k(    3) = (   0.0000000   0.1666667   0.0000000), wk =   0.0416667
        k(    4) = (   0.0000000   0.2500000   0.0000000), wk =   0.0416667
        k(    5) = (   0.0000000   0.3333333   0.0000000), wk =   0.0416667
        k(    6) = (   0.0000000   0.4166667   0.0000000), wk =   0.0416667
        k(    7) = (   0.0000000  -0.5000000   0.0000000), wk =   0.0208333
        k(    8) = (   0.0833333   0.0833333   0.0000000), wk =   0.0416667
        k(    9) = (   0.0833333   0.1666667   0.0000000), wk =   0.0416667
        k(   10) = (   0.0833333   0.2500000   0.0000000), wk =   0.0416667
        k(   11) = (   0.0833333   0.3333333   0.0000000), wk =   0.0416667
        k(   12) = (   0.0833333   0.4166667   0.0000000), wk =   0.0416667
        k(   13) = (   0.1666667   0.1666667   0.0000000), wk =   0.0416667
        k(   14) = (   0.1666667   0.2500000   0.0000000), wk =   0.0416667
        k(   15) = (   0.1666667   0.3333333   0.0000000), wk =   0.0416667
        k(   16) = (   0.1666667   0.4166667   0.0000000), wk =   0.0416667
        k(   17) = (   0.2500000   0.2500000   0.0000000), wk =   0.0416667
        k(   18) = (   0.2500000   0.3333333   0.0000000), wk =   0.0416667
        k(   19) = (   0.3333333   0.3333333   0.0000000), wk =   0.0138889
        k(   20) = (  -0.0833333   0.2500000   0.0000000), wk =   0.0416667
        k(   21) = (  -0.0833333   0.3333333   0.0000000), wk =   0.0416667
        k(   22) = (  -0.0833333   0.4166667   0.0000000), wk =   0.0416667
        k(   23) = (  -0.0833333   0.5000000   0.0000000), wk =   0.0416667
        k(   24) = (  -0.1666667   0.4166667   0.0000000), wk =   0.0416667
        k(   25) = (  -0.1666667   0.5000000   0.0000000), wk =   0.0416667
        k(   26) = (  -0.2500000   0.5833333   0.0000000), wk =   0.0416667

     Dense  grid:   110147 G-vectors     FFT dimensions: (  45,  45, 120)

     Dynamical RAM for                 wfc:      75.61 MB

     Dynamical RAM for     wfc (w. buffer):     604.91 MB

     Dynamical RAM for           str. fact:       3.36 MB

     Dynamical RAM for           local pot:       0.00 MB

     Dynamical RAM for          nlocal pot:      57.13 MB

     Dynamical RAM for                qrad:       4.61 MB

     Dynamical RAM for          rho,v,vnew:      42.42 MB

     Dynamical RAM for           G-vectors:       7.14 MB

     Dynamical RAM for          h,s,v(r/c):      23.73 MB

     Dynamical RAM for          <psi|beta>:       1.49 MB

     Dynamical RAM for                 psi:     302.45 MB

     Dynamical RAM for                hpsi:     302.45 MB

     Dynamical RAM for      wfcinit/wfcrot:     114.16 MB

     Estimated static dynamical RAM per process >     739.44 MB

     Estimated max dynamical RAM per process >       1.34 GB

     Estimated total dynamical RAM >       5.35 GB
 ----2D----2D----2D----2D----2D----2D----2D----2D----2D----2D----2D----2D
  The code is running with the 2D cutoff
  Please refer to:
  Sohier, T., Calandra, M., & Mauri, F. (2017), 
  Density functional perturbation theory for gated two-dimensional heterostructures:
  Theoretical developments and application to flexural phonons in graphene.
  Physical Review B, 96(7), 75448. https://doi.org/10.1103/PhysRevB.96.075448
 ----2D----2D----2D----2D----2D----2D----2D----2D----2D----2D----2D----2D

     Check: negative core charge=   -0.000380
     Generating pointlists ...
     new r_m :   0.1637 (alat units)  2.1238 (a.u.) for type    1
     new r_m :   0.1637 (alat units)  2.1238 (a.u.) for type    2

     The potential is recalculated from file :
     ./CrI3.save/charge-density


     negative rho (up, down):  0.000E+00 2.996E-03
     Starting wfcs are   88 randomized atomic wfcs +   92 random wfcs

     Band Structure Calculation
     Davidson diagonalization with overlap

     Computing kpt #:     1  of     7 on this pool
     total cpu time spent up to now is        4.2 secs

     Computing kpt #:     2  of     7 on this pool
     total cpu time spent up to now is        6.2 secs

     Computing kpt #:     3  of     7 on this pool
     total cpu time spent up to now is        8.3 secs

     Computing kpt #:     4  of     7 on this pool
     total cpu time spent up to now is       10.3 secs

     Computing kpt #:     5  of     7 on this pool
     total cpu time spent up to now is       12.4 secs

     Computing kpt #:     6  of     7 on this pool
     total cpu time spent up to now is       14.4 secs

     Computing kpt #:     7  of     7 on this pool
     total cpu time spent up to now is       16.4 secs

     ethr =  1.43E-12,  avg # of iterations = 50.8

     total cpu time spent up to now is       16.4 secs

     End of band structure calculation

          k = 0.0000 0.0000 0.0000 ( 13787 PWs)   bands (ev):

   -86.6164 -86.5954 -84.3913 -84.3688 -57.1556 -57.0709 -56.8397 -56.8345
   -56.4672 -56.3849 -54.4901 -54.4012 -54.2096 -54.2020 -53.9415 -53.8533
   -18.8464 -18.8164 -18.0674 -18.0423 -17.7689 -17.7677 -17.7475 -17.7460
   -17.6609 -17.6604 -17.6428 -17.6422 -10.8654 -10.4991 -10.2473  -9.9643
    -9.7495  -9.6999  -9.6027  -9.5015  -9.4705  -9.4550  -9.2361  -9.1187
    -9.0492  -8.9211  -8.6823  -8.6036  -8.5118  -8.2690  -8.2188  -8.0885
    -8.0647  -8.0209  -7.9684  -7.7122  -7.6999  -7.5968  -7.3523  -7.3005
    -7.0192  -6.9432  -6.7479  -6.4963  -6.4959  -6.3918  -6.2889  -6.2395
    -6.1773  -6.0950  -6.0783  -5.7691  -5.7455  -5.5396  -3.9923  -3.9333
    -3.7621  -3.4990  -3.4647  -3.4574  -3.4298  -3.4253  -2.9543  -2.9104
    -2.5405  -2.5151  -2.3953  -2.1759  -2.1274  -1.9448  -1.5916  -1.3879
    -1.3527  -0.8010  -0.6457  -0.4162  -0.3630   0.0275   0.3481   0.3638
     0.3900   0.4636   0.4695   0.5070   0.6795   0.6812   0.7120   0.7169
     1.1044   1.2191   1.5963   1.6159   1.8395   1.9183   1.9399   2.0262
     2.0345   2.1009   2.1433   2.2050   2.2073   2.2107   2.2496   2.3125
     2.3652   2.4078   2.4340   2.4648   2.5833   2.5989   2.9491   3.2008
     3.2659   3.3118   3.3305   3.3352   3.3846   3.4823   3.4901   3.5453
     3.6252   3.6805   3.7202   3.8106   3.8241   3.9002   3.9184   3.9424
     4.0116   4.0371   4.2104   4.2644   4.2827   4.3033   4.4050   4.5036
     4.5067   4.5091   4.5222   4.5247   4.5473   4.6348   4.6371   4.6991
     4.8990   4.9911   5.8514   5.8979   5.9383   6.1670   6.1725   6.1864
     6.3119   6.3221   6.3260   6.3481   6.3595   6.3661   6.4393   6.4425
     6.5233   6.5255   6.5267   6.5413

     occupation numbers 
     1.0000   1.0000   1.0000   1.0000   1.0000   1.0000   1.0000   1.0000
     1.0000   1.0000   1.0000   1.0000   1.0000   1.0000   1.0000   1.0000
     1.0000   1.0000   1.0000   1.0000   1.0000   1.0000   1.0000   1.0000
     1.0000   1.0000   1.0000   1.0000   1.0000   1.0000   1.0000   1.0000
     1.0000   1.0000   1.0000   1.0000   1.0000   1.0000   1.0000   1.0000
     1.0000   1.0000   1.0000   1.0000   1.0000   1.0000   1.0000   1.0000
     1.0000   1.0000   1.0000   1.0000   1.0000   1.0000   1.0000   1.0000
     1.0000   1.0000   1.0000   1.0000   1.0000   1.0000   1.0000   1.0000
     1.0000   1.0000   1.0000   1.0000   1.0000   1.0000   0.0000   0.0000
     0.0000   0.0000   0.0000   0.0000   0.0000   0.0000   0.0000   0.0000
     0.0000   0.0000   0.0000   0.0000   0.0000   0.0000   0.0000   0.0000
     0.0000   0.0000   0.0000   0.0000   0.0000   0.0000   0.0000   0.0000
     0.0000   0.0000   0.0000   0.0000   0.0000   0.0000   0.0000   0.0000
     0.0000   0.0000   0.0000   0.0000   0.0000   0.0000   0.0000   0.0000
     0.0000   0.0000   0.0000   0.0000   0.0000   0.0000   0.0000   0.0000
     0.0000   0.0000   0.0000   0.0000   0.0000   0.0000   0.0000   0.0000
     0.0000   0.0000   0.0000   0.0000   0.0000   0.0000   0.0000   0.0000
     0.0000   0.0000   0.0000   0.0000   0.0000   0.0000   0.0000   0.0000
     0.0000   0.0000   0.0000   0.0000   0.0000   0.0000   0.0000   0.0000
     0.0000   0.0000   0.0000   0.0000   0.0000   0.0000   0.0000   0.0000
     0.0000   0.0000   0.0000   0.0000   0.0000   0.0000   0.0000   0.0000
     0.0000   0.0000   0.0000   0.0000   0.0000   0.0000   0.0000   0.0000
     0.0000   0.0000   0.0000   0.0000

          k = 0.0000 0.0962 0.0000 ( 13791 PWs)   bands (ev):

   -86.6190 -86.5939 -84.3935 -84.3676 -57.1611 -57.0767 -56.8446 -56.8154
   -56.4718 -56.3910 -54.4959 -54.4075 -54.2126 -54.1834 -53.9465 -53.8598
   -18.8311 -18.8016 -18.0589 -18.0339 -17.7897 -17.7774 -17.7693 -17.7557
   -17.6620 -17.6613 -17.6442 -17.6431 -10.8578 -10.4965 -10.2449  -9.9624
    -9.7365  -9.7052  -9.5887  -9.5308  -9.4986  -9.4577  -9.1889  -9.1541
    -9.0037  -8.8287  -8.6884  -8.5465  -8.5271  -8.2233  -8.2010  -8.1164
    -8.0353  -8.0080  -7.9914  -7.7125  -7.6848  -7.5952  -7.3545  -7.3066
    -7.0511  -6.9540  -6.7664  -6.5400  -6.5052  -6.4360  -6.3395  -6.3034
    -6.1444  -6.0765  -6.0439  -5.8570  -5.7500  -5.5561  -3.9782  -3.9114
    -3.7930  -3.5235  -3.4905  -3.4755  -3.4556  -3.3482  -2.9741  -2.9281
    -2.5453  -2.4947  -2.4155  -2.2315  -2.0613  -1.8816  -1.5861  -1.3570
    -1.3108  -0.8147  -0.5248  -0.4068  -0.2865   0.0014   0.1545   0.2700
     0.4165   0.4604   0.4834   0.5064   0.6238   0.6515   0.6812   0.9054
     1.2122   1.4220   1.5891   1.6832   1.7353   1.7828   1.8129   1.8599
     1.9422   1.9938   1.9980   2.0705   2.1826   2.1957   2.3169   2.3543
     2.4345   2.4541   2.5417   2.5528   2.5718   2.6211   2.8929   2.9917
     3.0245   3.1301   3.2237   3.2363   3.3402   3.3692   3.3788   3.5983
     3.6436   3.6886   3.7089   3.8711   3.9070   3.9456   3.9674   3.9928
     4.0398   4.0920   4.1500   4.2012   4.2133   4.4373   4.4591   4.4771
     4.5051   4.5356   4.5799   4.6276   4.6852   4.7461   4.7727   4.8428
     5.0380   5.1552   5.6705   5.8097   5.8936   5.9008   5.9710   5.9911
     6.0711   6.1314   6.1862   6.2274   6.3210   6.3443   6.5155   6.5251
     6.5878   6.6021   6.6345   6.6632

     occupation numbers 
     1.0000   1.0000   1.0000   1.0000   1.0000   1.0000   1.0000   1.0000
     1.0000   1.0000   1.0000   1.0000   1.0000   1.0000   1.0000   1.0000
     1.0000   1.0000   1.0000   1.0000   1.0000   1.0000   1.0000   1.0000
     1.0000   1.0000   1.0000   1.0000   1.0000   1.0000   1.0000   1.0000
     1.0000   1.0000   1.0000   1.0000   1.0000   1.0000   1.0000   1.0000
     1.0000   1.0000   1.0000   1.0000   1.0000   1.0000   1.0000   1.0000
     1.0000   1.0000   1.0000   1.0000   1.0000   1.0000   1.0000   1.0000
     1.0000   1.0000   1.0000   1.0000   1.0000   1.0000   1.0000   1.0000
     1.0000   1.0000   1.0000   1.0000   1.0000   1.0000   0.0000   0.0000
     0.0000   0.0000   0.0000   0.0000   0.0000   0.0000   0.0000   0.0000
     0.0000   0.0000   0.0000   0.0000   0.0000   0.0000   0.0000   0.0000
     0.0000   0.0000   0.0000   0.0000   0.0000   0.0000   0.0000   0.0000
     0.0000   0.0000   0.0000   0.0000   0.0000   0.0000   0.0000   0.0000
     0.0000   0.0000   0.0000   0.0000   0.0000   0.0000   0.0000   0.0000
     0.0000   0.0000   0.0000   0.0000   0.0000   0.0000   0.0000   0.0000
     0.0000   0.0000   0.0000   0.0000   0.0000   0.0000   0.0000   0.0000
     0.0000   0.0000   0.0000   0.0000   0.0000   0.0000   0.0000   0.0000
     0.0000   0.0000   0.0000   0.0000   0.0000   0.0000   0.0000   0.0000
     0.0000   0.0000   0.0000   0.0000   0.0000   0.0000   0.0000   0.0000
     0.0000   0.0000   0.0000   0.0000   0.0000   0.0000   0.0000   0.0000
     0.0000   0.0000   0.0000   0.0000   0.0000   0.0000   0.0000   0.0000
     0.0000   0.0000   0.0000   0.0000   0.0000   0.0000   0.0000   0.0000
     0.0000   0.0000   0.0000   0.0000

          k = 0.0000 0.1925 0.0000 ( 13789 PWs)   bands (ev):

   -86.6155 -86.5971 -84.3898 -84.3707 -57.1494 -57.0887 -56.8417 -56.8195
   -56.4601 -56.4014 -54.4838 -54.4204 -54.2098 -54.1872 -53.9338 -53.8708
   -18.7862 -18.7582 -18.0339 -18.0092 -17.8490 -17.8316 -17.7992 -17.7769
   -17.6678 -17.6673 -17.6508 -17.6494 -10.8328 -10.4848 -10.2392  -9.9565
    -9.7216  -9.7113  -9.5884  -9.5722  -9.5349  -9.4335  -9.1567  -9.0957
    -8.8957  -8.7388  -8.6301  -8.5528  -8.4142  -8.2103  -8.1554  -8.1026
    -8.0459  -7.9745  -7.9079  -7.7247  -7.6587  -7.5931  -7.3870  -7.3202
    -7.1212  -6.9672  -6.8231  -6.7106  -6.5663  -6.4763  -6.4091  -6.3906
    -6.1077  -6.0429  -6.0338  -5.9625  -5.7729  -5.5862  -3.9988  -3.9155
    -3.8391  -3.5915  -3.5590  -3.4701  -3.3949  -3.2109  -3.0138  -2.9605
    -2.6164  -2.5330  -2.4303  -2.2904  -1.8868  -1.7100  -1.5814  -1.2767
    -1.2086  -0.8655  -0.5416  -0.2525  -0.1263  -0.1037  -0.0309   0.1227
     0.3546   0.3565   0.5354   0.6118   0.6397   0.7775   0.8100   1.0403
     1.2760   1.3167   1.4122   1.4634   1.5506   1.5686   1.7310   1.7684
     1.8565   1.9172   2.0031   2.0546   2.1019   2.2506   2.2812   2.3493
     2.3691   2.4282   2.4663   2.5322   2.5879   2.6000   2.6375   2.7168
     2.8631   2.9807   3.0519   3.1241   3.1998   3.2190   3.3157   3.4812
     3.6147   3.6887   3.8005   3.8137   3.9104   3.9307   4.0496   4.0676
     4.1151   4.1367   4.2536   4.2766   4.3275   4.3761   4.4681   4.5960
     4.6309   4.7253   4.7438   4.8130   4.8819   4.8983   5.1113   5.1900
     5.1993   5.3658   5.4109   5.5927   5.6173   5.6875   5.7141   5.7792
     6.0528   6.1379   6.3139   6.3647   6.4169   6.4544   6.4971   6.5070
     6.5525   6.6483   6.6655   6.7850

     occupation numbers 
     1.0000   1.0000   1.0000   1.0000   1.0000   1.0000   1.0000   1.0000
     1.0000   1.0000   1.0000   1.0000   1.0000   1.0000   1.0000   1.0000
     1.0000   1.0000   1.0000   1.0000   1.0000   1.0000   1.0000   1.0000
     1.0000   1.0000   1.0000   1.0000   1.0000   1.0000   1.0000   1.0000
     1.0000   1.0000   1.0000   1.0000   1.0000   1.0000   1.0000   1.0000
     1.0000   1.0000   1.0000   1.0000   1.0000   1.0000   1.0000   1.0000
     1.0000   1.0000   1.0000   1.0000   1.0000   1.0000   1.0000   1.0000
     1.0000   1.0000   1.0000   1.0000   1.0000   1.0000   1.0000   1.0000
     1.0000   1.0000   1.0000   1.0000   1.0000   1.0000   0.0000   0.0000
     0.0000   0.0000   0.0000   0.0000   0.0000   0.0000   0.0000   0.0000
     0.0000   0.0000   0.0000   0.0000   0.0000   0.0000   0.0000   0.0000
     0.0000   0.0000   0.0000   0.0000   0.0000   0.0000   0.0000   0.0000
     0.0000   0.0000   0.0000   0.0000   0.0000   0.0000   0.0000   0.0000
     0.0000   0.0000   0.0000   0.0000   0.0000   0.0000   0.0000   0.0000
     0.0000   0.0000   0.0000   0.0000   0.0000   0.0000   0.0000   0.0000
     0.0000   0.0000   0.0000   0.0000   0.0000   0.0000   0.0000   0.0000
     0.0000   0.0000   0.0000   0.0000   0.0000   0.0000   0.0000   0.0000
     0.0000   0.0000   0.0000   0.0000   0.0000   0.0000   0.0000   0.0000
     0.0000   0.0000   0.0000   0.0000   0.0000   0.0000   0.0000   0.0000
     0.0000   0.0000   0.0000   0.0000   0.0000   0.0000   0.0000   0.0000
     0.0000   0.0000   0.0000   0.0000   0.0000   0.0000   0.0000   0.0000
     0.0000   0.0000   0.0000   0.0000   0.0000   0.0000   0.0000   0.0000
     0.0000   0.0000   0.0000   0.0000

          k = 0.0000 0.2887 0.0000 ( 13766 PWs)   bands (ev):

   -86.6113 -86.5947 -84.3854 -84.3683 -57.1392 -57.0819 -56.8314 -56.8122
   -56.4495 -56.3948 -54.4734 -54.4134 -54.1987 -54.1794 -53.9224 -53.8638
   -18.7143 -18.6887 -17.9949 -17.9709 -17.9371 -17.9241 -17.8251 -17.8023
   -17.6849 -17.6774 -17.6668 -17.6617 -10.7959 -10.4640 -10.2232  -9.9385
    -9.7284  -9.7080  -9.6094  -9.5758  -9.5138  -9.3890  -9.0789  -8.9802
    -8.8126  -8.7344  -8.5813  -8.4397  -8.4304  -8.2147  -8.1448  -8.0329
    -7.9776  -7.9570  -7.7970  -7.6938  -7.6525  -7.5809  -7.4528  -7.3641
    -7.1886  -7.0618  -6.9150  -6.8099  -6.6211  -6.6035  -6.4428  -6.4138
    -6.1790  -6.0533  -6.0113  -5.9008  -5.7927  -5.5911  -3.9982  -3.9148
    -3.8470  -3.6864  -3.5979  -3.5130  -3.3197  -3.0945  -3.0457  -2.9262
    -2.6567  -2.5874  -2.3957  -2.3289  -1.6667  -1.6165  -1.4747  -1.1611
    -1.0697  -0.9991  -0.6818  -0.3733  -0.2102  -0.1761  -0.0501   0.1326
     0.3411   0.3877   0.5947   0.6593   0.6888   0.8844   0.9482   0.9837
     1.0870   1.1300   1.1777   1.2521   1.3715   1.5343   1.5638   1.7437
     1.7793   1.8303   1.9019   1.9801   2.0343   2.0595   2.1898   2.2510
     2.2632   2.3312   2.4438   2.5026   2.5338   2.6390   2.6911   2.8452
     2.8845   2.9126   3.0595   3.0886   3.0966   3.2537   3.3696   3.3867
     3.5351   3.5468   3.6097   3.6770   3.7258   3.9042   4.0259   4.0937
     4.1217   4.2208   4.2900   4.4414   4.4728   4.6600   4.7466   4.8814
     4.9118   4.9178   4.9589   5.0021   5.0401   5.0859   5.0912   5.1544
     5.3485   5.4026   5.4602   5.4865   5.5395   5.5906   6.0526   6.0713
     6.1269   6.2016   6.2548   6.3567   6.3873   6.4751   6.6029   6.6670
     6.6686   6.7741   6.8530   7.0246

     occupation numbers 
     1.0000   1.0000   1.0000   1.0000   1.0000   1.0000   1.0000   1.0000
     1.0000   1.0000   1.0000   1.0000   1.0000   1.0000   1.0000   1.0000
     1.0000   1.0000   1.0000   1.0000   1.0000   1.0000   1.0000   1.0000
     1.0000   1.0000   1.0000   1.0000   1.0000   1.0000   1.0000   1.0000
     1.0000   1.0000   1.0000   1.0000   1.0000   1.0000   1.0000   1.0000
     1.0000   1.0000   1.0000   1.0000   1.0000   1.0000   1.0000   1.0000
     1.0000   1.0000   1.0000   1.0000   1.0000   1.0000   1.0000   1.0000
     1.0000   1.0000   1.0000   1.0000   1.0000   1.0000   1.0000   1.0000
     1.0000   1.0000   1.0000   1.0000   1.0000   1.0000   0.0000   0.0000
     0.0000   0.0000   0.0000   0.0000   0.0000   0.0000   0.0000   0.0000
     0.0000   0.0000   0.0000   0.0000   0.0000   0.0000   0.0000   0.0000
     0.0000   0.0000   0.0000   0.0000   0.0000   0.0000   0.0000   0.0000
     0.0000   0.0000   0.0000   0.0000   0.0000   0.0000   0.0000   0.0000
     0.0000   0.0000   0.0000   0.0000   0.0000   0.0000   0.0000   0.0000
     0.0000   0.0000   0.0000   0.0000   0.0000   0.0000   0.0000   0.0000
     0.0000   0.0000   0.0000   0.0000   0.0000   0.0000   0.0000   0.0000
     0.0000   0.0000   0.0000   0.0000   0.0000   0.0000   0.0000   0.0000
     0.0000   0.0000   0.0000   0.0000   0.0000   0.0000   0.0000   0.0000
     0.0000   0.0000   0.0000   0.0000   0.0000   0.0000   0.0000   0.0000
     0.0000   0.0000   0.0000   0.0000   0.0000   0.0000   0.0000   0.0000
     0.0000   0.0000   0.0000   0.0000   0.0000   0.0000   0.0000   0.0000
     0.0000   0.0000   0.0000   0.0000   0.0000   0.0000   0.0000   0.0000
     0.0000   0.0000   0.0000   0.0000

          k = 0.0000 0.3849 0.0000 ( 13752 PWs)   bands (ev):

   -86.6132 -86.5891 -84.3873 -84.3626 -57.1409 -57.0613 -56.8473 -56.8082
   -56.4496 -56.3745 -54.4751 -54.3918 -54.2160 -54.1759 -53.9221 -53.8418
   -18.6212 -18.5986 -18.0457 -18.0380 -17.9447 -17.9211 -17.8480 -17.8247
   -17.7157 -17.6973 -17.6882 -17.6736 -10.7637 -10.4465 -10.1849  -9.8971
    -9.7524  -9.7015  -9.6098  -9.5031  -9.4557  -9.3391  -8.9700  -8.9464
    -8.8153  -8.6550  -8.5886  -8.5450  -8.3492  -8.1847  -8.1618  -8.0304
    -7.9734  -7.8938  -7.8854  -7.7317  -7.5971  -7.4878  -7.4451  -7.3379
    -7.2543  -7.1312  -7.0314  -6.8278  -6.6614  -6.6405  -6.5085  -6.4125
    -6.2621  -6.0211  -5.9808  -5.9092  -5.7814  -5.5884  -3.9792  -3.9408
    -3.8073  -3.7665  -3.6628  -3.6105  -3.2863  -3.0474  -3.0294  -2.8645
    -2.6690  -2.6249  -2.3715  -2.3287  -1.7769  -1.3754  -1.2167  -1.1968
    -1.0240  -0.9112  -0.7304  -0.5471  -0.3656  -0.2384  -0.1225   0.0136
     0.0355   0.2918   0.3593   0.6186   0.7203   0.7952   0.8906   1.0032
     1.0806   1.1121   1.1391   1.3786   1.4314   1.4633   1.5504   1.6065
     1.6757   1.7828   1.7976   1.8151   1.9033   1.9746   2.0482   2.2266
     2.2728   2.3398   2.3945   2.5062   2.6170   2.7512   2.7794   2.8226
     2.8724   2.9434   2.9915   3.0354   3.0873   3.1575   3.2129   3.3483
     3.3977   3.4829   3.5152   3.7628   3.8170   3.9498   4.1984   4.2166
     4.2784   4.4340   4.4897   4.5375   4.5587   4.6045   4.8260   4.9175
     4.9575   5.0285   5.0819   5.1522   5.1763   5.3335   5.3663   5.3992
     5.4794   5.5149   5.5726   5.6416   5.6923   5.7909   5.9848   5.9982
     6.0739   6.1367   6.4123   6.4795   6.5462   6.6149   6.8137   6.8512
     7.0556   7.0905   7.1890   7.1936

     occupation numbers 
     1.0000   1.0000   1.0000   1.0000   1.0000   1.0000   1.0000   1.0000
     1.0000   1.0000   1.0000   1.0000   1.0000   1.0000   1.0000   1.0000
     1.0000   1.0000   1.0000   1.0000   1.0000   1.0000   1.0000   1.0000
     1.0000   1.0000   1.0000   1.0000   1.0000   1.0000   1.0000   1.0000
     1.0000   1.0000   1.0000   1.0000   1.0000   1.0000   1.0000   1.0000
     1.0000   1.0000   1.0000   1.0000   1.0000   1.0000   1.0000   1.0000
     1.0000   1.0000   1.0000   1.0000   1.0000   1.0000   1.0000   1.0000
     1.0000   1.0000   1.0000   1.0000   1.0000   1.0000   1.0000   1.0000
     1.0000   1.0000   1.0000   1.0000   1.0000   1.0000   0.0000   0.0000
     0.0000   0.0000   0.0000   0.0000   0.0000   0.0000   0.0000   0.0000
     0.0000   0.0000   0.0000   0.0000   0.0000   0.0000   0.0000   0.0000
     0.0000   0.0000   0.0000   0.0000   0.0000   0.0000   0.0000   0.0000
     0.0000   0.0000   0.0000   0.0000   0.0000   0.0000   0.0000   0.0000
     0.0000   0.0000   0.0000   0.0000   0.0000   0.0000   0.0000   0.0000
     0.0000   0.0000   0.0000   0.0000   0.0000   0.0000   0.0000   0.0000
     0.0000   0.0000   0.0000   0.0000   0.0000   0.0000   0.0000   0.0000
     0.0000   0.0000   0.0000   0.0000   0.0000   0.0000   0.0000   0.0000
     0.0000   0.0000   0.0000   0.0000   0.0000   0.0000   0.0000   0.0000
     0.0000   0.0000   0.0000   0.0000   0.0000   0.0000   0.0000   0.0000
     0.0000   0.0000   0.0000   0.0000   0.0000   0.0000   0.0000   0.0000
     0.0000   0.0000   0.0000   0.0000   0.0000   0.0000   0.0000   0.0000
     0.0000   0.0000   0.0000   0.0000   0.0000   0.0000   0.0000   0.0000
     0.0000   0.0000   0.0000   0.0000

          k = 0.0000 0.4811 0.0000 ( 13766 PWs)   bands (ev):

   -86.6097 -86.5968 -84.3838 -84.3703 -57.1406 -57.0804 -56.8401 -56.8137
   -56.4513 -56.3923 -54.4750 -54.4114 -54.2097 -54.1797 -53.9243 -53.8609
   -18.5201 -18.5003 -18.1570 -18.1538 -17.8911 -17.8678 -17.8636 -17.8399
   -17.7572 -17.7386 -17.6968 -17.6830 -10.7482 -10.4404 -10.1303  -9.8463
    -9.7700  -9.7115  -9.5511  -9.4009  -9.3674  -9.3354  -8.9612  -8.8851
    -8.8105  -8.7660  -8.5456  -8.5047  -8.4307  -8.2459  -8.1858  -8.1261
    -8.0102  -7.8850  -7.8435  -7.7565  -7.6885  -7.3776  -7.3505  -7.2692
    -7.2085  -7.1447  -7.0769  -6.8408  -6.7004  -6.6534  -6.5776  -6.4223
    -6.2772  -6.0676  -5.9630  -5.9139  -5.7753  -5.6168  -3.9939  -3.9258
    -3.8399  -3.7730  -3.7138  -3.7001  -3.2625  -3.1058  -3.0112  -2.8711
    -2.6876  -2.5662  -2.3834  -2.3329  -1.9277  -1.3639  -1.0795  -0.9497
    -0.8815  -0.7594  -0.7155  -0.6802  -0.5228  -0.3716  -0.3443  -0.2552
    -0.0872   0.0627   0.1545   0.3607   0.6347   0.7322   0.8178   0.9801
     1.0294   1.1344   1.3430   1.3892   1.5413   1.5960   1.6214   1.6366
     1.6533   1.7222   1.7576   1.8371   1.8498   2.0314   2.0820   2.1117
     2.2163   2.3607   2.4495   2.4661   2.6205   2.6713   2.7163   2.7542
     2.7802   2.8071   2.8504   2.8819   2.9192   2.9917   3.1808   3.3067
     3.6094   3.7411   3.7987   3.9633   3.9964   4.1087   4.1621   4.3059
     4.3205   4.4258   4.5058   4.5967   4.7557   4.8144   4.9162   5.0044
     5.0988   5.1309   5.2016   5.2244   5.2722   5.3313   5.3724   5.4264
     5.6011   5.6845   5.7409   5.7940   5.8920   5.9380   6.0025   6.0892
     6.4844   6.5266   6.6267   6.7355   6.7612   6.8433   6.8746   6.9066
     6.9260   7.0017   7.0823   7.1263

     occupation numbers 
     1.0000   1.0000   1.0000   1.0000   1.0000   1.0000   1.0000   1.0000
     1.0000   1.0000   1.0000   1.0000   1.0000   1.0000   1.0000   1.0000
     1.0000   1.0000   1.0000   1.0000   1.0000   1.0000   1.0000   1.0000
     1.0000   1.0000   1.0000   1.0000   1.0000   1.0000   1.0000   1.0000
     1.0000   1.0000   1.0000   1.0000   1.0000   1.0000   1.0000   1.0000
     1.0000   1.0000   1.0000   1.0000   1.0000   1.0000   1.0000   1.0000
     1.0000   1.0000   1.0000   1.0000   1.0000   1.0000   1.0000   1.0000
     1.0000   1.0000   1.0000   1.0000   1.0000   1.0000   1.0000   1.0000
     1.0000   1.0000   1.0000   1.0000   1.0000   1.0000   0.0000   0.0000
     0.0000   0.0000   0.0000   0.0000   0.0000   0.0000   0.0000   0.0000
     0.0000   0.0000   0.0000   0.0000   0.0000   0.0000   0.0000   0.0000
     0.0000   0.0000   0.0000   0.0000   0.0000   0.0000   0.0000   0.0000
     0.0000   0.0000   0.0000   0.0000   0.0000   0.0000   0.0000   0.0000
     0.0000   0.0000   0.0000   0.0000   0.0000   0.0000   0.0000   0.0000
     0.0000   0.0000   0.0000   0.0000   0.0000   0.0000   0.0000   0.0000
     0.0000   0.0000   0.0000   0.0000   0.0000   0.0000   0.0000   0.0000
     0.0000   0.0000   0.0000   0.0000   0.0000   0.0000   0.0000   0.0000
     0.0000   0.0000   0.0000   0.0000   0.0000   0.0000   0.0000   0.0000
     0.0000   0.0000   0.0000   0.0000   0.0000   0.0000   0.0000   0.0000
     0.0000   0.0000   0.0000   0.0000   0.0000   0.0000   0.0000   0.0000
     0.0000   0.0000   0.0000   0.0000   0.0000   0.0000   0.0000   0.0000
     0.0000   0.0000   0.0000   0.0000   0.0000   0.0000   0.0000   0.0000
     0.0000   0.0000   0.0000   0.0000

          k = 0.0000-0.5774 0.0000 ( 13748 PWs)   bands (ev):

   -86.6043 -86.5969 -84.3785 -84.3704 -57.1295 -57.0801 -56.8365 -56.7974
   -56.4414 -56.3916 -54.4635 -54.4111 -54.2062 -54.1621 -53.9138 -53.8599
   -18.4611 -18.4421 -18.2199 -18.2178 -17.8692 -17.8566 -17.8452 -17.8330
   -17.7870 -17.7689 -17.6999 -17.6863 -10.7445 -10.4398 -10.1030  -9.8258
    -9.7730  -9.7174  -9.4824  -9.4009  -9.3370  -9.2932  -8.9637  -8.8819
    -8.8588  -8.6654  -8.6629  -8.4497  -8.4473  -8.3510  -8.2142  -8.1398
    -7.9887  -7.9024  -7.8135  -7.7385  -7.7189  -7.3742  -7.2957  -7.2648
    -7.2234  -7.0568  -7.0507  -6.8516  -6.7262  -6.6581  -6.5951  -6.4306
    -6.2656  -6.0913  -5.9596  -5.8977  -5.7502  -5.6152  -3.9720  -3.9047
    -3.8671  -3.7857  -3.7160  -3.7028  -3.2511  -3.1071  -3.0133  -2.8428
    -2.6625  -2.5303  -2.3711  -2.3199  -1.9905  -1.4264  -0.8283  -0.7854
    -0.7662  -0.7204  -0.6964  -0.6877  -0.6658  -0.5936  -0.5478  -0.3293
    -0.1502   0.0311   0.0908   0.2741   0.5764   0.7101   0.7893   0.9197
     0.9989   1.1315   1.3124   1.5342   1.5850   1.5938   1.6003   1.6723
     1.6965   1.7220   1.8132   1.8963   1.9693   2.0384   2.0729   2.0777
     2.2704   2.3191   2.3904   2.4701   2.4995   2.5491   2.6553   2.6752
     2.7317   2.7585   2.7863   2.8933   2.9383   2.9927   3.1778   3.2930
     3.8358   3.8551   3.9283   3.9777   4.0326   4.0711   4.1527   4.2398
     4.5532   4.5533   4.6049   4.6161   4.6580   4.7884   4.9657   4.9890
     5.0377   5.0805   5.1902   5.2033   5.2919   5.3139   5.3990   5.4672
     6.0243   6.0608   6.0662   6.0942   6.1336   6.1413   6.1645   6.2411
     6.2748   6.3662   6.4008   6.5279   6.6427   6.7201   6.8693   6.9303
     6.9355   7.0143   7.0194   7.0619

     occupation numbers 
     1.0000   1.0000   1.0000   1.0000   1.0000   1.0000   1.0000   1.0000
     1.0000   1.0000   1.0000   1.0000   1.0000   1.0000   1.0000   1.0000
     1.0000   1.0000   1.0000   1.0000   1.0000   1.0000   1.0000   1.0000
     1.0000   1.0000   1.0000   1.0000   1.0000   1.0000   1.0000   1.0000
     1.0000   1.0000   1.0000   1.0000   1.0000   1.0000   1.0000   1.0000
     1.0000   1.0000   1.0000   1.0000   1.0000   1.0000   1.0000   1.0000
     1.0000   1.0000   1.0000   1.0000   1.0000   1.0000   1.0000   1.0000
     1.0000   1.0000   1.0000   1.0000   1.0000   1.0000   1.0000   1.0000
     1.0000   1.0000   1.0000   1.0000   1.0000   1.0000   0.0000   0.0000
     0.0000   0.0000   0.0000   0.0000   0.0000   0.0000   0.0000   0.0000
     0.0000   0.0000   0.0000   0.0000   0.0000   0.0000   0.0000   0.0000
     0.0000   0.0000   0.0000   0.0000   0.0000   0.0000   0.0000   0.0000
     0.0000   0.0000   0.0000   0.0000   0.0000   0.0000   0.0000   0.0000
     0.0000   0.0000   0.0000   0.0000   0.0000   0.0000   0.0000   0.0000
     0.0000   0.0000   0.0000   0.0000   0.0000   0.0000   0.0000   0.0000
     0.0000   0.0000   0.0000   0.0000   0.0000   0.0000   0.0000   0.0000
     0.0000   0.0000   0.0000   0.0000   0.0000   0.0000   0.0000   0.0000
     0.0000   0.0000   0.0000   0.0000   0.0000   0.0000   0.0000   0.0000
     0.0000   0.0000   0.0000   0.0000   0.0000   0.0000   0.0000   0.0000
     0.0000   0.0000   0.0000   0.0000   0.0000   0.0000   0.0000   0.0000
     0.0000   0.0000   0.0000   0.0000   0.0000   0.0000   0.0000   0.0000
     0.0000   0.0000   0.0000   0.0000   0.0000   0.0000   0.0000   0.0000
     0.0000   0.0000   0.0000   0.0000

          k = 0.0833 0.1443 0.0000 ( 13801 PWs)   bands (ev):

   -86.6172 -86.5989 -84.3916 -84.3724 -57.1569 -57.0883 -56.8394 -56.8344
   -56.4675 -56.4012 -54.4917 -54.4197 -54.2070 -54.2034 -53.9418 -53.8707
   -18.8010 -18.7725 -18.0421 -18.0173 -17.8276 -17.8093 -17.7952 -17.7732
   -17.6658 -17.6645 -17.6479 -17.6472 -10.8403 -10.4883 -10.2421  -9.9595
    -9.7312  -9.7056  -9.5853  -9.5601  -9.5351  -9.4427  -9.1663  -9.1232
    -8.9283  -8.7403  -8.6688  -8.5492  -8.4477  -8.2123  -8.1549  -8.1246
    -8.0340  -7.9838  -7.9552  -7.7193  -7.6643  -7.5956  -7.3779  -7.3106
    -7.1050  -6.9575  -6.8046  -6.6524  -6.5357  -6.5097  -6.4309  -6.3082
    -6.1441  -6.0334  -5.9937  -5.9832  -5.7732  -5.5797  -4.0119  -3.9214
    -3.8275  -3.5651  -3.5413  -3.5126  -3.3873  -3.2573  -2.9989  -2.9576
    -2.6186  -2.5171  -2.4387  -2.2855  -1.9418  -1.7655  -1.5785  -1.3023
    -1.2401  -0.8438  -0.5173  -0.3286  -0.1072  -0.0899   0.0258   0.1520
     0.2807   0.3844   0.5234   0.6333   0.6610   0.6876   0.8436   0.9385
     1.3222   1.3970   1.4480   1.5427   1.5581   1.6621   1.6746   1.8436
     1.8941   1.9590   2.0152   2.0439   2.1032   2.1979   2.2785   2.3264
     2.3811   2.4530   2.4827   2.5810   2.5926   2.6664   2.7093   2.8006
     2.8877   3.0261   3.0671   3.0774   3.2385   3.2443   3.2876   3.4065
     3.6147   3.7049   3.8174   3.8808   3.9173   4.0506   4.0951   4.1055
     4.1781   4.1963   4.2218   4.2297   4.2611   4.3999   4.4093   4.5263
     4.5394   4.5898   4.6313   4.6999   4.7510   4.8302   5.1214   5.1575
     5.2392   5.2817   5.4494   5.6039   5.6496   5.7957   5.8933   5.9340
     5.9532   6.0328   6.1539   6.2186   6.2777   6.4319   6.4478   6.5159
     6.5490   6.6595   6.7188   6.7694

     occupation numbers 
     1.0000   1.0000   1.0000   1.0000   1.0000   1.0000   1.0000   1.0000
     1.0000   1.0000   1.0000   1.0000   1.0000   1.0000   1.0000   1.0000
     1.0000   1.0000   1.0000   1.0000   1.0000   1.0000   1.0000   1.0000
     1.0000   1.0000   1.0000   1.0000   1.0000   1.0000   1.0000   1.0000
     1.0000   1.0000   1.0000   1.0000   1.0000   1.0000   1.0000   1.0000
     1.0000   1.0000   1.0000   1.0000   1.0000   1.0000   1.0000   1.0000
     1.0000   1.0000   1.0000   1.0000   1.0000   1.0000   1.0000   1.0000
     1.0000   1.0000   1.0000   1.0000   1.0000   1.0000   1.0000   1.0000
     1.0000   1.0000   1.0000   1.0000   1.0000   1.0000   0.0000   0.0000
     0.0000   0.0000   0.0000   0.0000   0.0000   0.0000   0.0000   0.0000
     0.0000   0.0000   0.0000   0.0000   0.0000   0.0000   0.0000   0.0000
     0.0000   0.0000   0.0000   0.0000   0.0000   0.0000   0.0000   0.0000
     0.0000   0.0000   0.0000   0.0000   0.0000   0.0000   0.0000   0.0000
     0.0000   0.0000   0.0000   0.0000   0.0000   0.0000   0.0000   0.0000
     0.0000   0.0000   0.0000   0.0000   0.0000   0.0000   0.0000   0.0000
     0.0000   0.0000   0.0000   0.0000   0.0000   0.0000   0.0000   0.0000
     0.0000   0.0000   0.0000   0.0000   0.0000   0.0000   0.0000   0.0000
     0.0000   0.0000   0.0000   0.0000   0.0000   0.0000   0.0000   0.0000
     0.0000   0.0000   0.0000   0.0000   0.0000   0.0000   0.0000   0.0000
     0.0000   0.0000   0.0000   0.0000   0.0000   0.0000   0.0000   0.0000
     0.0000   0.0000   0.0000   0.0000   0.0000   0.0000   0.0000   0.0000
     0.0000   0.0000   0.0000   0.0000   0.0000   0.0000   0.0000   0.0000
     0.0000   0.0000   0.0000   0.0000

          k = 0.0833 0.2406 0.0000 ( 13778 PWs)   bands (ev):

   -86.6118 -86.5977 -84.3859 -84.3713 -57.1382 -57.0900 -56.8371 -56.8196
   -56.4485 -56.4025 -54.4723 -54.4219 -54.2050 -54.1871 -53.9212 -53.8721
   -18.7425 -18.7159 -18.0101 -17.9857 -17.8974 -17.8828 -17.8236 -17.8012
   -17.6781 -17.6713 -17.6603 -17.6548 -10.8038 -10.4656 -10.2363  -9.9529
    -9.7385  -9.6992  -9.6059  -9.5713  -9.5380  -9.4077  -9.1145  -9.0130
    -8.8094  -8.7733  -8.5702  -8.4889  -8.4051  -8.2268  -8.1523  -8.0559
    -8.0042  -7.9710  -7.7914  -7.7273  -7.6632  -7.5992  -7.4407  -7.3323
    -7.1648  -6.9979  -6.8664  -6.7798  -6.6100  -6.5704  -6.5397  -6.2998
    -6.1427  -6.1120  -5.9825  -5.9218  -5.7950  -5.5893  -4.0266  -3.8959
    -3.8739  -3.6325  -3.5678  -3.5116  -3.3516  -3.1187  -3.0200  -2.9595
    -2.6771  -2.5252  -2.4433  -2.3077  -1.7418  -1.5943  -1.5648  -1.2077
    -1.1220  -0.9289  -0.7128  -0.3118  -0.2065  -0.1054   0.0254   0.1272
     0.2284   0.4818   0.5460   0.6705   0.7736   0.8193   0.8606   0.9816
     1.0755   1.2595   1.2743   1.3378   1.4565   1.5276   1.6269   1.7330
     1.8216   1.8751   1.8984   1.9311   2.0577   2.0928   2.1285   2.2226
     2.3377   2.3995   2.5363   2.5668   2.5900   2.6283   2.6823   2.7409
     2.8220   2.9776   2.9976   3.1310   3.1492   3.2059   3.3238   3.3912
     3.4869   3.6443   3.6838   3.7286   3.8743   3.9452   4.0603   4.2171
     4.2376   4.3132   4.3476   4.4304   4.4484   4.5642   4.6083   4.6318
     4.6834   4.6988   4.8568   4.8722   4.9103   5.0146   5.0422   5.1507
     5.3425   5.4771   5.5234   5.5887   5.6336   5.7318   5.8049   5.8508
     5.9725   6.0812   6.3060   6.4122   6.4216   6.4980   6.5229   6.5383
     6.6048   6.6661   6.8377   6.8852

     occupation numbers 
     1.0000   1.0000   1.0000   1.0000   1.0000   1.0000   1.0000   1.0000
     1.0000   1.0000   1.0000   1.0000   1.0000   1.0000   1.0000   1.0000
     1.0000   1.0000   1.0000   1.0000   1.0000   1.0000   1.0000   1.0000
     1.0000   1.0000   1.0000   1.0000   1.0000   1.0000   1.0000   1.0000
     1.0000   1.0000   1.0000   1.0000   1.0000   1.0000   1.0000   1.0000
     1.0000   1.0000   1.0000   1.0000   1.0000   1.0000   1.0000   1.0000
     1.0000   1.0000   1.0000   1.0000   1.0000   1.0000   1.0000   1.0000
     1.0000   1.0000   1.0000   1.0000   1.0000   1.0000   1.0000   1.0000
     1.0000   1.0000   1.0000   1.0000   1.0000   1.0000   0.0000   0.0000
     0.0000   0.0000   0.0000   0.0000   0.0000   0.0000   0.0000   0.0000
     0.0000   0.0000   0.0000   0.0000   0.0000   0.0000   0.0000   0.0000
     0.0000   0.0000   0.0000   0.0000   0.0000   0.0000   0.0000   0.0000
     0.0000   0.0000   0.0000   0.0000   0.0000   0.0000   0.0000   0.0000
     0.0000   0.0000   0.0000   0.0000   0.0000   0.0000   0.0000   0.0000
     0.0000   0.0000   0.0000   0.0000   0.0000   0.0000   0.0000   0.0000
     0.0000   0.0000   0.0000   0.0000   0.0000   0.0000   0.0000   0.0000
     0.0000   0.0000   0.0000   0.0000   0.0000   0.0000   0.0000   0.0000
     0.0000   0.0000   0.0000   0.0000   0.0000   0.0000   0.0000   0.0000
     0.0000   0.0000   0.0000   0.0000   0.0000   0.0000   0.0000   0.0000
     0.0000   0.0000   0.0000   0.0000   0.0000   0.0000   0.0000   0.0000
     0.0000   0.0000   0.0000   0.0000   0.0000   0.0000   0.0000   0.0000
     0.0000   0.0000   0.0000   0.0000   0.0000   0.0000   0.0000   0.0000
     0.0000   0.0000   0.0000   0.0000

          k = 0.0833 0.3368 0.0000 ( 13752 PWs)   bands (ev):

   -86.6105 -86.5917 -84.3845 -84.3652 -57.1373 -57.0714 -56.8306 -56.8097
   -56.4459 -56.3837 -54.4719 -54.4027 -54.1976 -54.1770 -53.9182 -53.8518
   -18.6596 -18.6358 -17.9940 -17.9841 -17.9645 -17.9409 -17.8514 -17.8287
   -17.7012 -17.6831 -17.6820 -17.6667 -10.7587 -10.4350 -10.2159  -9.9298
    -9.7408  -9.7060  -9.6124  -9.5464  -9.4970  -9.3603  -9.0156  -8.9311
    -8.8408  -8.6717  -8.5645  -8.5201  -8.3411  -8.2220  -8.1536  -8.0359
    -7.9683  -7.9145  -7.8013  -7.7178  -7.6136  -7.5259  -7.4693  -7.3761
    -7.2299  -7.0831  -6.9439  -6.8211  -6.6712  -6.6459  -6.5548  -6.3211
    -6.2520  -6.0742  -5.9500  -5.8920  -5.7838  -5.5899  -4.0211  -3.9141
    -3.8239  -3.7098  -3.6245  -3.5574  -3.3254  -3.0444  -3.0230  -2.8874
    -2.6966  -2.5648  -2.4004  -2.3147  -1.6905  -1.4928  -1.3229  -1.0980
    -1.0947  -0.9781  -0.8549  -0.4722  -0.3695  -0.1249  -0.0794   0.0736
     0.2306   0.3697   0.4401   0.6383   0.6513   0.8184   0.8828   0.9409
     1.0870   1.1777   1.2184   1.2604   1.4047   1.4868   1.5272   1.5826
     1.6911   1.7127   1.7846   1.8551   1.9382   1.9653   2.0859   2.1370
     2.2773   2.4035   2.4478   2.5628   2.5753   2.7389   2.7789   2.9055
     2.9908   3.0458   3.0771   3.1066   3.1751   3.2502   3.3238   3.3603
     3.3820   3.4720   3.5009   3.7763   3.8144   3.9626   4.1477   4.2177
     4.2488   4.2936   4.3453   4.5787   4.6047   4.6627   4.7095   4.7641
     4.8030   4.9784   5.0208   5.1151   5.1500   5.2002   5.2252   5.3786
     5.4028   5.4765   5.5124   5.6239   5.7208   5.7917   5.8548   5.9487
     6.1877   6.2564   6.3092   6.4355   6.4641   6.5696   6.6855   6.7709
     6.7814   6.8793   6.8928   6.9858

     occupation numbers 
     1.0000   1.0000   1.0000   1.0000   1.0000   1.0000   1.0000   1.0000
     1.0000   1.0000   1.0000   1.0000   1.0000   1.0000   1.0000   1.0000
     1.0000   1.0000   1.0000   1.0000   1.0000   1.0000   1.0000   1.0000
     1.0000   1.0000   1.0000   1.0000   1.0000   1.0000   1.0000   1.0000
     1.0000   1.0000   1.0000   1.0000   1.0000   1.0000   1.0000   1.0000
     1.0000   1.0000   1.0000   1.0000   1.0000   1.0000   1.0000   1.0000
     1.0000   1.0000   1.0000   1.0000   1.0000   1.0000   1.0000   1.0000
     1.0000   1.0000   1.0000   1.0000   1.0000   1.0000   1.0000   1.0000
     1.0000   1.0000   1.0000   1.0000   1.0000   1.0000   0.0000   0.0000
     0.0000   0.0000   0.0000   0.0000   0.0000   0.0000   0.0000   0.0000
     0.0000   0.0000   0.0000   0.0000   0.0000   0.0000   0.0000   0.0000
     0.0000   0.0000   0.0000   0.0000   0.0000   0.0000   0.0000   0.0000
     0.0000   0.0000   0.0000   0.0000   0.0000   0.0000   0.0000   0.0000
     0.0000   0.0000   0.0000   0.0000   0.0000   0.0000   0.0000   0.0000
     0.0000   0.0000   0.0000   0.0000   0.0000   0.0000   0.0000   0.0000
     0.0000   0.0000   0.0000   0.0000   0.0000   0.0000   0.0000   0.0000
     0.0000   0.0000   0.0000   0.0000   0.0000   0.0000   0.0000   0.0000
     0.0000   0.0000   0.0000   0.0000   0.0000   0.0000   0.0000   0.0000
     0.0000   0.0000   0.0000   0.0000   0.0000   0.0000   0.0000   0.0000
     0.0000   0.0000   0.0000   0.0000   0.0000   0.0000   0.0000   0.0000
     0.0000   0.0000   0.0000   0.0000   0.0000   0.0000   0.0000   0.0000
     0.0000   0.0000   0.0000   0.0000   0.0000   0.0000   0.0000   0.0000
     0.0000   0.0000   0.0000   0.0000

          k = 0.0833 0.4330 0.0000 ( 13741 PWs)   bands (ev):

   -86.6054 -86.5936 -84.3795 -84.3672 -57.1232 -57.0758 -56.8232 -56.8136
   -56.4334 -56.3884 -54.4570 -54.4070 -54.1909 -54.1806 -53.9049 -53.8568
   -18.5603 -18.5397 -18.1034 -18.0988 -17.9131 -17.8898 -17.8728 -17.8498
   -17.7363 -17.7176 -17.6928 -17.6781 -10.7253 -10.4136 -10.1702  -9.8821
    -9.7558  -9.6983  -9.5945  -9.4643  -9.4170  -9.3310  -8.9668  -8.9224
    -8.7952  -8.7563  -8.5590  -8.4913  -8.3786  -8.2043  -8.1738  -8.1099
    -8.0034  -7.8887  -7.8134  -7.7586  -7.6091  -7.4318  -7.3924  -7.2947
    -7.2251  -7.1214  -7.0390  -6.8288  -6.7141  -6.6637  -6.5849  -6.3457
    -6.2978  -6.0412  -5.9633  -5.9000  -5.7677  -5.5948  -3.9867  -3.9197
    -3.7939  -3.7573  -3.6819  -3.6474  -3.2926  -3.0770  -2.9858  -2.8619
    -2.6565  -2.5624  -2.3761  -2.3229  -1.8450  -1.2885  -1.2224  -1.0724
    -1.0232  -0.8436  -0.8284  -0.5627  -0.5125  -0.2208  -0.1964  -0.1491
    -0.0299   0.1188   0.2060   0.4224   0.6144   0.7073   0.8351   0.8911
     1.0043   1.1577   1.2090   1.4000   1.4571   1.5049   1.5326   1.6093
     1.6279   1.6592   1.7374   1.8194   1.8289   2.0120   2.0809   2.1929
     2.2305   2.4488   2.5125   2.5591   2.6433   2.7440   2.7686   2.8636
     2.8971   2.9355   3.0454   3.0640   3.1597   3.1930   3.2261   3.3426
     3.3865   3.5871   3.6906   3.9314   4.0080   4.1631   4.1840   4.3150
     4.3272   4.4360   4.4536   4.5014   4.6470   4.7339   4.7664   4.8575
     4.9379   5.0527   5.1700   5.3019   5.3196   5.3991   5.4443   5.5142
     5.5492   5.5914   5.6539   5.7172   5.7430   5.8420   5.9046   6.0556
     6.2642   6.3461   6.5339   6.6099   6.6435   6.7226   6.8121   6.8682
     6.8856   6.9652   6.9840   7.0567

     occupation numbers 
     1.0000   1.0000   1.0000   1.0000   1.0000   1.0000   1.0000   1.0000
     1.0000   1.0000   1.0000   1.0000   1.0000   1.0000   1.0000   1.0000
     1.0000   1.0000   1.0000   1.0000   1.0000   1.0000   1.0000   1.0000
     1.0000   1.0000   1.0000   1.0000   1.0000   1.0000   1.0000   1.0000
     1.0000   1.0000   1.0000   1.0000   1.0000   1.0000   1.0000   1.0000
     1.0000   1.0000   1.0000   1.0000   1.0000   1.0000   1.0000   1.0000
     1.0000   1.0000   1.0000   1.0000   1.0000   1.0000   1.0000   1.0000
     1.0000   1.0000   1.0000   1.0000   1.0000   1.0000   1.0000   1.0000
     1.0000   1.0000   1.0000   1.0000   1.0000   1.0000   0.0000   0.0000
     0.0000   0.0000   0.0000   0.0000   0.0000   0.0000   0.0000   0.0000
     0.0000   0.0000   0.0000   0.0000   0.0000   0.0000   0.0000   0.0000
     0.0000   0.0000   0.0000   0.0000   0.0000   0.0000   0.0000   0.0000
     0.0000   0.0000   0.0000   0.0000   0.0000   0.0000   0.0000   0.0000
     0.0000   0.0000   0.0000   0.0000   0.0000   0.0000   0.0000   0.0000
     0.0000   0.0000   0.0000   0.0000   0.0000   0.0000   0.0000   0.0000
     0.0000   0.0000   0.0000   0.0000   0.0000   0.0000   0.0000   0.0000
     0.0000   0.0000   0.0000   0.0000   0.0000   0.0000   0.0000   0.0000
     0.0000   0.0000   0.0000   0.0000   0.0000   0.0000   0.0000   0.0000
     0.0000   0.0000   0.0000   0.0000   0.0000   0.0000   0.0000   0.0000
     0.0000   0.0000   0.0000   0.0000   0.0000   0.0000   0.0000   0.0000
     0.0000   0.0000   0.0000   0.0000   0.0000   0.0000   0.0000   0.0000
     0.0000   0.0000   0.0000   0.0000   0.0000   0.0000   0.0000   0.0000
     0.0000   0.0000   0.0000   0.0000

          k = 0.0833 0.5292 0.0000 ( 13770 PWs)   bands (ev):

   -86.6096 -86.5982 -84.3835 -84.3717 -57.1383 -57.0863 -56.8361 -56.8240
   -56.4483 -56.3969 -54.4728 -54.4180 -54.2052 -54.1906 -53.9210 -53.8657
   -18.4688 -18.4502 -18.2011 -18.1995 -17.8848 -17.8637 -17.8614 -17.8406
   -17.7766 -17.7580 -17.6992 -17.6850 -10.7116 -10.4063 -10.1253  -9.8405
    -9.7658  -9.7028  -9.5258  -9.3987  -9.3614  -9.3271  -8.9792  -8.9057
    -8.8628  -8.7412  -8.6223  -8.5356  -8.3598  -8.3186  -8.2192  -8.1202
    -7.9831  -7.8971  -7.8335  -7.7172  -7.6590  -7.3746  -7.3227  -7.2686
    -7.2049  -7.0909  -7.0189  -6.8461  -6.7412  -6.6986  -6.6353  -6.3741
    -6.2858  -6.0787  -5.9661  -5.8947  -5.7629  -5.6209  -3.9841  -3.9417
    -3.8470  -3.7768  -3.7233  -3.7105  -3.3000  -3.1088  -2.9766  -2.8595
    -2.6727  -2.5597  -2.3763  -2.3267  -1.9607  -1.4091  -1.0351  -0.9262
    -0.8109  -0.7565  -0.7347  -0.6252  -0.5897  -0.5339  -0.4188  -0.3032
    -0.1265  -0.0211   0.0641   0.2598   0.5713   0.6431   0.7712   0.8330
     0.8935   1.1011   1.2318   1.3233   1.5000   1.5323   1.5981   1.6212
     1.6906   1.7216   1.7882   1.8828   1.9082   2.0324   2.1451   2.1734
     2.2687   2.3952   2.4676   2.5489   2.6971   2.7234   2.7379   2.7630
     2.8489   2.8755   2.9161   3.0097   3.0393   3.1285   3.2124   3.3249
     3.5429   3.7020   3.9230   4.0982   4.1368   4.1905   4.2449   4.3052
     4.4091   4.4915   4.5115   4.6120   4.7487   4.8553   4.8728   4.9393
     5.0542   5.1429   5.2019   5.2332   5.2791   5.3346   5.3528   5.4604
     5.8240   5.9009   5.9304   5.9957   6.0708   6.0996   6.1185   6.2118
     6.2922   6.3559   6.3933   6.4515   6.5642   6.6829   6.7940   6.9129
     6.9694   7.0179   7.0920   7.1452

     occupation numbers 
     1.0000   1.0000   1.0000   1.0000   1.0000   1.0000   1.0000   1.0000
     1.0000   1.0000   1.0000   1.0000   1.0000   1.0000   1.0000   1.0000
     1.0000   1.0000   1.0000   1.0000   1.0000   1.0000   1.0000   1.0000
     1.0000   1.0000   1.0000   1.0000   1.0000   1.0000   1.0000   1.0000
     1.0000   1.0000   1.0000   1.0000   1.0000   1.0000   1.0000   1.0000
     1.0000   1.0000   1.0000   1.0000   1.0000   1.0000   1.0000   1.0000
     1.0000   1.0000   1.0000   1.0000   1.0000   1.0000   1.0000   1.0000
     1.0000   1.0000   1.0000   1.0000   1.0000   1.0000   1.0000   1.0000
     1.0000   1.0000   1.0000   1.0000   1.0000   1.0000   0.0000   0.0000
     0.0000   0.0000   0.0000   0.0000   0.0000   0.0000   0.0000   0.0000
     0.0000   0.0000   0.0000   0.0000   0.0000   0.0000   0.0000   0.0000
     0.0000   0.0000   0.0000   0.0000   0.0000   0.0000   0.0000   0.0000
     0.0000   0.0000   0.0000   0.0000   0.0000   0.0000   0.0000   0.0000
     0.0000   0.0000   0.0000   0.0000   0.0000   0.0000   0.0000   0.0000
     0.0000   0.0000   0.0000   0.0000   0.0000   0.0000   0.0000   0.0000
     0.0000   0.0000   0.0000   0.0000   0.0000   0.0000   0.0000   0.0000
     0.0000   0.0000   0.0000   0.0000   0.0000   0.0000   0.0000   0.0000
     0.0000   0.0000   0.0000   0.0000   0.0000   0.0000   0.0000   0.0000
     0.0000   0.0000   0.0000   0.0000   0.0000   0.0000   0.0000   0.0000
     0.0000   0.0000   0.0000   0.0000   0.0000   0.0000   0.0000   0.0000
     0.0000   0.0000   0.0000   0.0000   0.0000   0.0000   0.0000   0.0000
     0.0000   0.0000   0.0000   0.0000   0.0000   0.0000   0.0000   0.0000
     0.0000   0.0000   0.0000   0.0000

          k = 0.1667 0.2887 0.0000 ( 13739 PWs)   bands (ev):

   -86.6054 -86.5929 -84.3795 -84.3665 -57.1183 -57.0756 -56.8256 -56.8128
   -56.4279 -56.3861 -54.4517 -54.4073 -54.1931 -54.1803 -53.8987 -53.8540
   -18.6727 -18.6485 -17.9754 -17.9644 -17.9596 -17.9462 -17.8617 -17.8392
   -17.6957 -17.6791 -17.6774 -17.6629 -10.7477 -10.4205 -10.2354  -9.9505
    -9.7457  -9.7019  -9.6036  -9.5563  -9.5238  -9.3706  -9.0328  -8.9147
    -8.8532  -8.6814  -8.5470  -8.4966  -8.3299  -8.2661  -8.1339  -8.0620
    -7.9808  -7.9001  -7.7381  -7.7238  -7.6634  -7.5518  -7.4650  -7.3776
    -7.1974  -7.0342  -6.8956  -6.8171  -6.6961  -6.6585  -6.5741  -6.2792
    -6.2308  -6.1102  -5.9275  -5.8743  -5.7906  -5.5797  -4.0359  -3.9038
    -3.8197  -3.6588  -3.6025  -3.5343  -3.3557  -3.0131  -2.9920  -2.9215
    -2.6989  -2.4669  -2.4640  -2.2862  -1.6379  -1.5424  -1.3641  -1.1339
    -1.0362  -1.0000  -0.9355  -0.5709  -0.2590  -0.1639   0.0228   0.0771
     0.3325   0.4376   0.4624   0.5597   0.6321   0.6427   0.9541   1.0329
     1.1024   1.1811   1.2248   1.2655   1.3684   1.4675   1.5115   1.5860
     1.6746   1.6894   1.8055   1.8823   1.8945   1.9571   2.0331   2.1511
     2.1991   2.3550   2.4944   2.6542   2.6634   2.8464   2.8684   2.9416
     3.0127   3.0633   3.0808   3.1240   3.1818   3.2405   3.2663   3.3442
     3.3774   3.5157   3.5397   3.8117   3.8890   4.1144   4.1783   4.3205
     4.3784   4.4276   4.4719   4.4915   4.5157   4.5371   4.5849   4.6310
     4.7454   4.7923   4.8010   5.0296   5.1572   5.2679   5.3019   5.3327
     5.3981   5.4382   5.6748   5.6879   5.7342   5.7853   5.8584   5.9165
     5.9413   5.9992   6.4278   6.4398   6.5395   6.5468   6.5808   6.7109
     6.7152   6.7886   6.8635   6.9781

     occupation numbers 
     1.0000   1.0000   1.0000   1.0000   1.0000   1.0000   1.0000   1.0000
     1.0000   1.0000   1.0000   1.0000   1.0000   1.0000   1.0000   1.0000
     1.0000   1.0000   1.0000   1.0000   1.0000   1.0000   1.0000   1.0000
     1.0000   1.0000   1.0000   1.0000   1.0000   1.0000   1.0000   1.0000
     1.0000   1.0000   1.0000   1.0000   1.0000   1.0000   1.0000   1.0000
     1.0000   1.0000   1.0000   1.0000   1.0000   1.0000   1.0000   1.0000
     1.0000   1.0000   1.0000   1.0000   1.0000   1.0000   1.0000   1.0000
     1.0000   1.0000   1.0000   1.0000   1.0000   1.0000   1.0000   1.0000
     1.0000   1.0000   1.0000   1.0000   1.0000   1.0000   0.0000   0.0000
     0.0000   0.0000   0.0000   0.0000   0.0000   0.0000   0.0000   0.0000
     0.0000   0.0000   0.0000   0.0000   0.0000   0.0000   0.0000   0.0000
     0.0000   0.0000   0.0000   0.0000   0.0000   0.0000   0.0000   0.0000
     0.0000   0.0000   0.0000   0.0000   0.0000   0.0000   0.0000   0.0000
     0.0000   0.0000   0.0000   0.0000   0.0000   0.0000   0.0000   0.0000
     0.0000   0.0000   0.0000   0.0000   0.0000   0.0000   0.0000   0.0000
     0.0000   0.0000   0.0000   0.0000   0.0000   0.0000   0.0000   0.0000
     0.0000   0.0000   0.0000   0.0000   0.0000   0.0000   0.0000   0.0000
     0.0000   0.0000   0.0000   0.0000   0.0000   0.0000   0.0000   0.0000
     0.0000   0.0000   0.0000   0.0000   0.0000   0.0000   0.0000   0.0000
     0.0000   0.0000   0.0000   0.0000   0.0000   0.0000   0.0000   0.0000
     0.0000   0.0000   0.0000   0.0000   0.0000   0.0000   0.0000   0.0000
     0.0000   0.0000   0.0000   0.0000   0.0000   0.0000   0.0000   0.0000
     0.0000   0.0000   0.0000   0.0000

          k = 0.1667 0.3849 0.0000 ( 13738 PWs)   bands (ev):

   -86.6047 -86.5935 -84.3787 -84.3670 -57.1203 -57.0749 -56.8195 -56.8172
   -56.4305 -56.3871 -54.4538 -54.4062 -54.1871 -54.1846 -53.9017 -53.8554
   -18.5820 -18.5609 -18.0595 -18.0547 -17.9251 -17.9018 -17.8963 -17.8738
   -17.7220 -17.7032 -17.6902 -17.6747 -10.6794 -10.3630 -10.2215  -9.9339
    -9.7400  -9.6986  -9.5957  -9.5296  -9.4587  -9.3430  -8.9698  -8.9541
    -8.8103  -8.7412  -8.5623  -8.4525  -8.3654  -8.2007  -8.1730  -8.1207
    -8.0239  -7.8816  -7.7877  -7.6888  -7.5741  -7.4924  -7.4087  -7.3269
    -7.2213  -7.0589  -6.9678  -6.8337  -6.7554  -6.7043  -6.5734  -6.3707
    -6.2370  -6.0718  -5.9356  -5.8730  -5.7722  -5.5990  -4.0032  -3.9218
    -3.7920  -3.7119  -3.6678  -3.5759  -3.3748  -3.0521  -2.9416  -2.8894
    -2.6535  -2.4978  -2.4206  -2.3145  -1.7397  -1.3309  -1.2152  -1.1882
    -1.1336  -0.9142  -0.9001  -0.7055  -0.4187  -0.1929  -0.0742   0.0218
     0.0666   0.2188   0.2391   0.3963   0.4182   0.6014   0.8053   0.9000
     1.0538   1.0949   1.1184   1.2038   1.3666   1.4619   1.4858   1.5314
     1.6029   1.7132   1.7205   1.8233   1.9104   2.0026   2.0652   2.1389
     2.3288   2.4937   2.5248   2.6803   2.7461   2.8775   2.9136   2.9926
     3.0164   3.0468   3.1735   3.2074   3.2562   3.2924   3.3373   3.4150
     3.4569   3.5015   3.7438   3.9708   4.0504   4.1744   4.2535   4.3052
     4.3449   4.3978   4.4754   4.4849   4.5019   4.6233   4.6498   4.7571
     4.7728   4.9577   5.0279   5.1921   5.3228   5.4416   5.5157   5.6028
     5.6276   5.6631   5.6871   5.7244   5.7741   5.8042   5.9046   5.9756
     6.1515   6.1861   6.2717   6.3266   6.4864   6.5880   6.7101   6.8058
     6.8934   6.9607   7.0098   7.0416

     occupation numbers 
     1.0000   1.0000   1.0000   1.0000   1.0000   1.0000   1.0000   1.0000
     1.0000   1.0000   1.0000   1.0000   1.0000   1.0000   1.0000   1.0000
     1.0000   1.0000   1.0000   1.0000   1.0000   1.0000   1.0000   1.0000
     1.0000   1.0000   1.0000   1.0000   1.0000   1.0000   1.0000   1.0000
     1.0000   1.0000   1.0000   1.0000   1.0000   1.0000   1.0000   1.0000
     1.0000   1.0000   1.0000   1.0000   1.0000   1.0000   1.0000   1.0000
     1.0000   1.0000   1.0000   1.0000   1.0000   1.0000   1.0000   1.0000
     1.0000   1.0000   1.0000   1.0000   1.0000   1.0000   1.0000   1.0000
     1.0000   1.0000   1.0000   1.0000   1.0000   1.0000   0.0000   0.0000
     0.0000   0.0000   0.0000   0.0000   0.0000   0.0000   0.0000   0.0000
     0.0000   0.0000   0.0000   0.0000   0.0000   0.0000   0.0000   0.0000
     0.0000   0.0000   0.0000   0.0000   0.0000   0.0000   0.0000   0.0000
     0.0000   0.0000   0.0000   0.0000   0.0000   0.0000   0.0000   0.0000
     0.0000   0.0000   0.0000   0.0000   0.0000   0.0000   0.0000   0.0000
     0.0000   0.0000   0.0000   0.0000   0.0000   0.0000   0.0000   0.0000
     0.0000   0.0000   0.0000   0.0000   0.0000   0.0000   0.0000   0.0000
     0.0000   0.0000   0.0000   0.0000   0.0000   0.0000   0.0000   0.0000
     0.0000   0.0000   0.0000   0.0000   0.0000   0.0000   0.0000   0.0000
     0.0000   0.0000   0.0000   0.0000   0.0000   0.0000   0.0000   0.0000
     0.0000   0.0000   0.0000   0.0000   0.0000   0.0000   0.0000   0.0000
     0.0000   0.0000   0.0000   0.0000   0.0000   0.0000   0.0000   0.0000
     0.0000   0.0000   0.0000   0.0000   0.0000   0.0000   0.0000   0.0000
     0.0000   0.0000   0.0000   0.0000

          k = 0.1667 0.4811 0.0000 ( 13768 PWs)   bands (ev):

   -86.6091 -86.5980 -84.3830 -84.3716 -57.1325 -57.0886 -56.8363 -56.8245
   -56.4433 -56.4003 -54.4664 -54.4202 -54.2047 -54.1920 -53.9158 -53.8695
   -18.4820 -18.4640 -18.1616 -18.1608 -17.9190 -17.8964 -17.8746 -17.8519
   -17.7573 -17.7380 -17.7001 -17.6850 -10.6299 -10.3223 -10.1856  -9.8948
    -9.7418  -9.6777  -9.5774  -9.4620  -9.3906  -9.3644  -9.0065  -8.9248
    -8.8912  -8.7758  -8.6181  -8.5502  -8.3565  -8.2552  -8.1969  -8.0832
    -8.0398  -7.8772  -7.7381  -7.6857  -7.5725  -7.4298  -7.3482  -7.2710
    -7.1712  -7.0760  -7.0029  -6.8416  -6.8092  -6.7411  -6.5990  -6.3885
    -6.2582  -6.0425  -5.9823  -5.8914  -5.7734  -5.6238  -3.9830  -3.9352
    -3.8030  -3.7464  -3.6970  -3.6604  -3.3936  -3.1030  -2.9486  -2.8905
    -2.6236  -2.5356  -2.3707  -2.3214  -1.8740  -1.3442  -1.3249  -1.0557
    -0.9509  -0.8738  -0.7864  -0.6428  -0.5409  -0.3323  -0.2628  -0.1961
    -0.1385   0.0155   0.0440   0.2073   0.4247   0.5639   0.5807   0.6773
     0.8125   0.9023   1.1448   1.3356   1.3693   1.4251   1.4958   1.5496
     1.5930   1.6900   1.7951   1.8419   1.8974   2.0599   2.1612   2.3069
     2.4400   2.5837   2.6426   2.7626   2.7899   2.7988   2.8850   2.9109
     3.0160   3.0451   3.2245   3.2528   3.3146   3.3737   3.3993   3.4105
     3.4792   3.5638   3.9689   4.1349   4.1698   4.1842   4.2361   4.2850
     4.3389   4.4286   4.5790   4.6501   4.7017   4.7570   4.8214   4.8928
     4.9770   5.0752   5.1296   5.2637   5.4090   5.4580   5.5207   5.6009
     5.6147   5.7101   5.7885   5.8588   5.8987   5.9995   6.0525   6.1585
     6.1989   6.2671   6.3140   6.3858   6.4822   6.5857   6.6954   6.8013
     6.8454   6.9921   7.0918   7.1064

     occupation numbers 
     1.0000   1.0000   1.0000   1.0000   1.0000   1.0000   1.0000   1.0000
     1.0000   1.0000   1.0000   1.0000   1.0000   1.0000   1.0000   1.0000
     1.0000   1.0000   1.0000   1.0000   1.0000   1.0000   1.0000   1.0000
     1.0000   1.0000   1.0000   1.0000   1.0000   1.0000   1.0000   1.0000
     1.0000   1.0000   1.0000   1.0000   1.0000   1.0000   1.0000   1.0000
     1.0000   1.0000   1.0000   1.0000   1.0000   1.0000   1.0000   1.0000
     1.0000   1.0000   1.0000   1.0000   1.0000   1.0000   1.0000   1.0000
     1.0000   1.0000   1.0000   1.0000   1.0000   1.0000   1.0000   1.0000
     1.0000   1.0000   1.0000   1.0000   1.0000   1.0000   0.0000   0.0000
     0.0000   0.0000   0.0000   0.0000   0.0000   0.0000   0.0000   0.0000
     0.0000   0.0000   0.0000   0.0000   0.0000   0.0000   0.0000   0.0000
     0.0000   0.0000   0.0000   0.0000   0.0000   0.0000   0.0000   0.0000
     0.0000   0.0000   0.0000   0.0000   0.0000   0.0000   0.0000   0.0000
     0.0000   0.0000   0.0000   0.0000   0.0000   0.0000   0.0000   0.0000
     0.0000   0.0000   0.0000   0.0000   0.0000   0.0000   0.0000   0.0000
     0.0000   0.0000   0.0000   0.0000   0.0000   0.0000   0.0000   0.0000
     0.0000   0.0000   0.0000   0.0000   0.0000   0.0000   0.0000   0.0000
     0.0000   0.0000   0.0000   0.0000   0.0000   0.0000   0.0000   0.0000
     0.0000   0.0000   0.0000   0.0000   0.0000   0.0000   0.0000   0.0000
     0.0000   0.0000   0.0000   0.0000   0.0000   0.0000   0.0000   0.0000
     0.0000   0.0000   0.0000   0.0000   0.0000   0.0000   0.0000   0.0000
     0.0000   0.0000   0.0000   0.0000   0.0000   0.0000   0.0000   0.0000
     0.0000   0.0000   0.0000   0.0000

          k = 0.1667 0.5774 0.0000 ( 13782 PWs)   bands (ev):

   -86.6093 -86.6020 -84.3831 -84.3755 -57.1323 -57.1060 -56.8349 -56.8286
   -56.4425 -56.4166 -54.4662 -54.4389 -54.2028 -54.1963 -53.9147 -53.8871
   -18.4207 -18.4038 -18.2252 -18.2234 -17.9267 -17.9043 -17.8419 -17.8188
   -17.7844 -17.7654 -17.7039 -17.6891 -10.6139 -10.3098 -10.1620  -9.8708
    -9.7442  -9.6689  -9.5367  -9.4527  -9.3887  -9.3484  -9.0407  -8.9474
    -8.8932  -8.7589  -8.7049  -8.5744  -8.4540  -8.2689  -8.1298  -8.0732
    -8.0114  -7.8554  -7.8036  -7.6295  -7.5778  -7.3978  -7.3414  -7.2519
    -7.1772  -7.0676  -6.9532  -6.8500  -6.8440  -6.7620  -6.6180  -6.3792
    -6.2657  -6.0605  -5.9856  -5.8862  -5.7667  -5.6396  -3.9642  -3.9427
    -3.8331  -3.7555  -3.7357  -3.6737  -3.3898  -3.1336  -2.9441  -2.8807
    -2.6131  -2.5468  -2.3592  -2.3215  -1.9348  -1.4089  -1.3386  -0.9414
    -0.9085  -0.7681  -0.7013  -0.6281  -0.5137  -0.4863  -0.4672  -0.3335
    -0.1301  -0.0841  -0.0357   0.1486   0.4612   0.4940   0.5438   0.5930
     0.7416   0.7958   1.1458   1.3405   1.3792   1.4108   1.4770   1.5430
     1.6305   1.6543   1.8188   1.8806   1.9649   2.0708   2.2377   2.3834
     2.4601   2.5334   2.6122   2.7128   2.7907   2.8594   2.9410   3.0196
     3.0348   3.1395   3.1673   3.2763   3.2893   3.3433   3.3841   3.4413
     3.4720   3.5106   3.9833   4.1219   4.1658   4.2176   4.3490   4.3655
     4.4167   4.4873   4.6338   4.7061   4.8086   4.8904   4.9424   4.9842
     5.0137   5.0985   5.1590   5.2067   5.3736   5.3818   5.4540   5.5552
     5.8935   5.9079   5.9825   5.9875   6.0130   6.0193   6.0657   6.0842
     6.1064   6.2066   6.3175   6.3889   6.5257   6.6025   6.6110   6.7895
     6.8936   6.9814   7.0152   7.0679

     occupation numbers 
     1.0000   1.0000   1.0000   1.0000   1.0000   1.0000   1.0000   1.0000
     1.0000   1.0000   1.0000   1.0000   1.0000   1.0000   1.0000   1.0000
     1.0000   1.0000   1.0000   1.0000   1.0000   1.0000   1.0000   1.0000
     1.0000   1.0000   1.0000   1.0000   1.0000   1.0000   1.0000   1.0000
     1.0000   1.0000   1.0000   1.0000   1.0000   1.0000   1.0000   1.0000
     1.0000   1.0000   1.0000   1.0000   1.0000   1.0000   1.0000   1.0000
     1.0000   1.0000   1.0000   1.0000   1.0000   1.0000   1.0000   1.0000
     1.0000   1.0000   1.0000   1.0000   1.0000   1.0000   1.0000   1.0000
     1.0000   1.0000   1.0000   1.0000   1.0000   1.0000   0.0000   0.0000
     0.0000   0.0000   0.0000   0.0000   0.0000   0.0000   0.0000   0.0000
     0.0000   0.0000   0.0000   0.0000   0.0000   0.0000   0.0000   0.0000
     0.0000   0.0000   0.0000   0.0000   0.0000   0.0000   0.0000   0.0000
     0.0000   0.0000   0.0000   0.0000   0.0000   0.0000   0.0000   0.0000
     0.0000   0.0000   0.0000   0.0000   0.0000   0.0000   0.0000   0.0000
     0.0000   0.0000   0.0000   0.0000   0.0000   0.0000   0.0000   0.0000
     0.0000   0.0000   0.0000   0.0000   0.0000   0.0000   0.0000   0.0000
     0.0000   0.0000   0.0000   0.0000   0.0000   0.0000   0.0000   0.0000
     0.0000   0.0000   0.0000   0.0000   0.0000   0.0000   0.0000   0.0000
     0.0000   0.0000   0.0000   0.0000   0.0000   0.0000   0.0000   0.0000
     0.0000   0.0000   0.0000   0.0000   0.0000   0.0000   0.0000   0.0000
     0.0000   0.0000   0.0000   0.0000   0.0000   0.0000   0.0000   0.0000
     0.0000   0.0000   0.0000   0.0000   0.0000   0.0000   0.0000   0.0000
     0.0000   0.0000   0.0000   0.0000

          k = 0.2500 0.4330 0.0000 ( 13791 PWs)   bands (ev):

   -86.6111 -86.6028 -84.3848 -84.3764 -57.1357 -57.1052 -56.8413 -56.8342
   -56.4465 -56.4172 -54.4696 -54.4376 -54.2094 -54.2028 -53.9193 -53.8877
   -18.4880 -18.4702 -18.1395 -18.1385 -17.9397 -17.9169 -17.8792 -17.8565
   -17.7471 -17.7275 -17.7026 -17.6874 -10.5747 -10.2643 -10.2328  -9.9424
    -9.7319  -9.6800  -9.5612  -9.5256  -9.4042  -9.3808  -9.0219  -8.9341
    -8.9080  -8.7796  -8.6280  -8.5440  -8.3647  -8.2378  -8.1816  -8.0770
    -8.0666  -7.8884  -7.6880  -7.6238  -7.5563  -7.4932  -7.3252  -7.2592
    -7.2014  -7.0427  -7.0211  -6.8646  -6.8128  -6.7325  -6.5722  -6.4525
    -6.2280  -6.0558  -5.9852  -5.8873  -5.7900  -5.6476  -4.0071  -3.9394
    -3.8050  -3.7433  -3.6750  -3.6186  -3.4809  -3.1168  -2.9351  -2.9232
    -2.6286  -2.4907  -2.4117  -2.3302  -1.7927  -1.4900  -1.2663  -1.1096
    -1.0663  -0.9407  -0.8046  -0.6678  -0.5223  -0.2677  -0.1811  -0.1501
    -0.0241   0.0038   0.0732   0.1296   0.2943   0.4623   0.5590   0.6339
     0.7491   0.8531   1.0256   1.2343   1.2803   1.4316   1.5130   1.5375
     1.6725   1.6868   1.6908   1.8774   2.0177   2.0342   2.1091   2.2140
     2.5340   2.7212   2.7597   2.8261   2.8349   2.8821   2.9784   3.0281
     3.1230   3.1905   3.2036   3.2257   3.3004   3.3376   3.4847   3.6183
     3.6630   3.7116   3.9238   4.0306   4.1393   4.1633   4.2026   4.2996
     4.3777   4.4378   4.5502   4.6634   4.6855   4.7439   4.7971   4.8530
     5.0043   5.0263   5.0688   5.2801   5.4813   5.5602   5.5698   5.5723
     5.6534   5.6923   5.7397   5.8451   5.9094   5.9782   6.0249   6.0871
     6.1240   6.1499   6.2070   6.2884   6.3953   6.4872   6.6120   6.6968
     6.8811   6.9661   7.0169   7.0321

     occupation numbers 
     1.0000   1.0000   1.0000   1.0000   1.0000   1.0000   1.0000   1.0000
     1.0000   1.0000   1.0000   1.0000   1.0000   1.0000   1.0000   1.0000
     1.0000   1.0000   1.0000   1.0000   1.0000   1.0000   1.0000   1.0000
     1.0000   1.0000   1.0000   1.0000   1.0000   1.0000   1.0000   1.0000
     1.0000   1.0000   1.0000   1.0000   1.0000   1.0000   1.0000   1.0000
     1.0000   1.0000   1.0000   1.0000   1.0000   1.0000   1.0000   1.0000
     1.0000   1.0000   1.0000   1.0000   1.0000   1.0000   1.0000   1.0000
     1.0000   1.0000   1.0000   1.0000   1.0000   1.0000   1.0000   1.0000
     1.0000   1.0000   1.0000   1.0000   1.0000   1.0000   0.0000   0.0000
     0.0000   0.0000   0.0000   0.0000   0.0000   0.0000   0.0000   0.0000
     0.0000   0.0000   0.0000   0.0000   0.0000   0.0000   0.0000   0.0000
     0.0000   0.0000   0.0000   0.0000   0.0000   0.0000   0.0000   0.0000
     0.0000   0.0000   0.0000   0.0000   0.0000   0.0000   0.0000   0.0000
     0.0000   0.0000   0.0000   0.0000   0.0000   0.0000   0.0000   0.0000
     0.0000   0.0000   0.0000   0.0000   0.0000   0.0000   0.0000   0.0000
     0.0000   0.0000   0.0000   0.0000   0.0000   0.0000   0.0000   0.0000
     0.0000   0.0000   0.0000   0.0000   0.0000   0.0000   0.0000   0.0000
     0.0000   0.0000   0.0000   0.0000   0.0000   0.0000   0.0000   0.0000
     0.0000   0.0000   0.0000   0.0000   0.0000   0.0000   0.0000   0.0000
     0.0000   0.0000   0.0000   0.0000   0.0000   0.0000   0.0000   0.0000
     0.0000   0.0000   0.0000   0.0000   0.0000   0.0000   0.0000   0.0000
     0.0000   0.0000   0.0000   0.0000   0.0000   0.0000   0.0000   0.0000
     0.0000   0.0000   0.0000   0.0000

          k = 0.2500 0.5292 0.0000 ( 13757 PWs)   bands (ev):

   -86.6047 -86.5991 -84.3785 -84.3729 -57.1151 -57.0966 -56.8310 -56.8220
   -56.4273 -56.4093 -54.4478 -54.4285 -54.1991 -54.1899 -53.8986 -53.8792
   -18.3938 -18.3792 -18.2280 -18.2228 -17.9638 -17.9409 -17.8350 -17.8127
   -17.7771 -17.7567 -17.7116 -17.6966 -10.4912 -10.2373 -10.1861  -9.9420
    -9.7238  -9.6428  -9.5407  -9.4916  -9.4521  -9.3784  -9.0553  -8.9863
    -8.8922  -8.8203  -8.7155  -8.5877  -8.4953  -8.2617  -8.1068  -8.0420
    -7.9667  -7.8262  -7.7017  -7.5927  -7.5245  -7.4222  -7.3329  -7.2265
    -7.1787  -7.0912  -6.9458  -6.8755  -6.8233  -6.7788  -6.5916  -6.4449
    -6.2054  -6.0258  -5.9890  -5.8648  -5.7499  -5.6573  -3.9667  -3.8908
    -3.8124  -3.7283  -3.6810  -3.6044  -3.4894  -3.1019  -2.9221  -2.8879
    -2.5464  -2.4784  -2.3634  -2.2803  -1.8529  -1.5958  -1.3445  -1.1428
    -0.9862  -0.8360  -0.7244  -0.5316  -0.5043  -0.4521  -0.3157  -0.2694
    -0.1530  -0.1325  -0.0360   0.0293   0.2823   0.3721   0.4378   0.4621
     0.5648   0.6733   0.9684   1.1208   1.3212   1.3532   1.5489   1.5782
     1.6211   1.6513   1.8412   1.9894   2.0152   2.0798   2.1912   2.3504
     2.4682   2.6178   2.7840   2.9003   3.0292   3.0834   3.1066   3.2149
     3.2369   3.2685   3.3225   3.4048   3.4199   3.4483   3.5233   3.5751
     3.6618   3.7980   3.8539   3.9459   3.9784   4.0856   4.3076   4.3884
     4.5387   4.6188   4.6516   4.6876   4.7606   4.8438   4.9870   5.1480
     5.1736   5.2530   5.3091   5.3378   5.4372   5.4945   5.6084   5.6868
     5.7105   5.7883   5.8084   5.8910   5.9041   5.9241   5.9638   6.0121
     6.0739   6.1984   6.2520   6.3405   6.4782   6.5586   6.5878   6.6735
     6.6903   6.7617   6.7992   6.8720

     occupation numbers 
     1.0000   1.0000   1.0000   1.0000   1.0000   1.0000   1.0000   1.0000
     1.0000   1.0000   1.0000   1.0000   1.0000   1.0000   1.0000   1.0000
     1.0000   1.0000   1.0000   1.0000   1.0000   1.0000   1.0000   1.0000
     1.0000   1.0000   1.0000   1.0000   1.0000   1.0000   1.0000   1.0000
     1.0000   1.0000   1.0000   1.0000   1.0000   1.0000   1.0000   1.0000
     1.0000   1.0000   1.0000   1.0000   1.0000   1.0000   1.0000   1.0000
     1.0000   1.0000   1.0000   1.0000   1.0000   1.0000   1.0000   1.0000
     1.0000   1.0000   1.0000   1.0000   1.0000   1.0000   1.0000   1.0000
     1.0000   1.0000   1.0000   1.0000   1.0000   1.0000   0.0000   0.0000
     0.0000   0.0000   0.0000   0.0000   0.0000   0.0000   0.0000   0.0000
     0.0000   0.0000   0.0000   0.0000   0.0000   0.0000   0.0000   0.0000
     0.0000   0.0000   0.0000   0.0000   0.0000   0.0000   0.0000   0.0000
     0.0000   0.0000   0.0000   0.0000   0.0000   0.0000   0.0000   0.0000
     0.0000   0.0000   0.0000   0.0000   0.0000   0.0000   0.0000   0.0000
     0.0000   0.0000   0.0000   0.0000   0.0000   0.0000   0.0000   0.0000
     0.0000   0.0000   0.0000   0.0000   0.0000   0.0000   0.0000   0.0000
     0.0000   0.0000   0.0000   0.0000   0.0000   0.0000   0.0000   0.0000
     0.0000   0.0000   0.0000   0.0000   0.0000   0.0000   0.0000   0.0000
     0.0000   0.0000   0.0000   0.0000   0.0000   0.0000   0.0000   0.0000
     0.0000   0.0000   0.0000   0.0000   0.0000   0.0000   0.0000   0.0000
     0.0000   0.0000   0.0000   0.0000   0.0000   0.0000   0.0000   0.0000
     0.0000   0.0000   0.0000   0.0000   0.0000   0.0000   0.0000   0.0000
     0.0000   0.0000   0.0000   0.0000

          k = 0.3333 0.5774 0.0000 ( 13773 PWs)   bands (ev):

   -86.6044 -86.6044 -84.3781 -84.3781 -57.1119 -57.1106 -56.8367 -56.8367
   -56.4236 -56.4222 -54.4448 -54.4430 -54.2053 -54.2053 -53.8948 -53.8928
   -18.3065 -18.3056 -18.2960 -18.2953 -17.9825 -17.9591 -17.8014 -17.8013
   -17.7798 -17.7798 -17.7183 -17.7038 -10.3687 -10.3196 -10.0642 -10.0220
    -9.7230  -9.6045  -9.5574  -9.4913  -9.4642  -9.4322  -9.0394  -9.0166
    -8.9367  -8.8130  -8.7428  -8.6543  -8.5191  -8.2708  -8.1258  -8.0223
    -7.8451  -7.7787  -7.7488  -7.5903  -7.4773  -7.3755  -7.3609  -7.2563
    -7.1574  -7.1368  -6.9172  -6.8707  -6.8103  -6.8066  -6.5979  -6.4656
    -6.1983  -6.0250  -6.0023  -5.8536  -5.7327  -5.6809  -3.9747  -3.8756
    -3.8387  -3.7156  -3.7095  -3.5845  -3.5442  -3.0995  -2.9042  -2.8985
    -2.5263  -2.4521  -2.4032  -2.2754  -1.7737  -1.7680  -1.2875  -1.2833
    -0.9994  -0.8537  -0.6285  -0.6154  -0.3769  -0.3541  -0.3495  -0.3172
    -0.2629  -0.1857  -0.0641  -0.0633   0.2563   0.2644   0.3874   0.4434
     0.4511   0.5767   0.8895   1.0034   1.2884   1.2985   1.5532   1.5679
     1.6998   1.8007   1.8414   1.8421   2.1648   2.2166   2.2176   2.2272
     2.3864   2.4881   2.9597   2.9606   3.2120   3.2213   3.3260   3.3288
     3.3614   3.4039   3.4361   3.4422   3.4672   3.4801   3.5687   3.5715
     3.6452   3.7292   3.8895   3.9167   4.0382   4.0649   4.1459   4.1793
     4.6608   4.6891   4.6913   4.7548   4.7606   4.7760   5.3139   5.3404
     5.3712   5.4241   5.4778   5.4848   5.5044   5.5805   5.6120   5.6435
     5.6685   5.7723   5.8352   5.8811   5.9078   5.9279   5.9622   6.0294
     6.0400   6.0835   6.1889   6.2340   6.3182   6.3648   6.4898   6.5013
     6.5740   6.5773   6.7114   6.7302

     occupation numbers 
     1.0000   1.0000   1.0000   1.0000   1.0000   1.0000   1.0000   1.0000
     1.0000   1.0000   1.0000   1.0000   1.0000   1.0000   1.0000   1.0000
     1.0000   1.0000   1.0000   1.0000   1.0000   1.0000   1.0000   1.0000
     1.0000   1.0000   1.0000   1.0000   1.0000   1.0000   1.0000   1.0000
     1.0000   1.0000   1.0000   1.0000   1.0000   1.0000   1.0000   1.0000
     1.0000   1.0000   1.0000   1.0000   1.0000   1.0000   1.0000   1.0000
     1.0000   1.0000   1.0000   1.0000   1.0000   1.0000   1.0000   1.0000
     1.0000   1.0000   1.0000   1.0000   1.0000   1.0000   1.0000   1.0000
     1.0000   1.0000   1.0000   1.0000   1.0000   1.0000   0.0000   0.0000
     0.0000   0.0000   0.0000   0.0000   0.0000   0.0000   0.0000   0.0000
     0.0000   0.0000   0.0000   0.0000   0.0000   0.0000   0.0000   0.0000
     0.0000   0.0000   0.0000   0.0000   0.0000   0.0000   0.0000   0.0000
     0.0000   0.0000   0.0000   0.0000   0.0000   0.0000   0.0000   0.0000
     0.0000   0.0000   0.0000   0.0000   0.0000   0.0000   0.0000   0.0000
     0.0000   0.0000   0.0000   0.0000   0.0000   0.0000   0.0000   0.0000
     0.0000   0.0000   0.0000   0.0000   0.0000   0.0000   0.0000   0.0000
     0.0000   0.0000   0.0000   0.0000   0.0000   0.0000   0.0000   0.0000
     0.0000   0.0000   0.0000   0.0000   0.0000   0.0000   0.0000   0.0000
     0.0000   0.0000   0.0000   0.0000   0.0000   0.0000   0.0000   0.0000
     0.0000   0.0000   0.0000   0.0000   0.0000   0.0000   0.0000   0.0000
     0.0000   0.0000   0.0000   0.0000   0.0000   0.0000   0.0000   0.0000
     0.0000   0.0000   0.0000   0.0000   0.0000   0.0000   0.0000   0.0000
     0.0000   0.0000   0.0000   0.0000

          k =-0.0833 0.2406 0.0000 ( 13778 PWs)   bands (ev):

   -86.6118 -86.5977 -84.3859 -84.3713 -57.1382 -57.0900 -56.8371 -56.8196
   -56.4485 -56.4025 -54.4723 -54.4219 -54.2050 -54.1871 -53.9213 -53.8721
   -18.7425 -18.7159 -18.0101 -17.9857 -17.8974 -17.8828 -17.8236 -17.8012
   -17.6778 -17.6716 -17.6600 -17.6551 -10.8038 -10.4655 -10.2364  -9.9530
    -9.7378  -9.7001  -9.6055  -9.5720  -9.5374  -9.4076  -9.1147  -9.0131
    -8.8106  -8.7713  -8.5706  -8.4890  -8.4047  -8.2271  -8.1525  -8.0566
    -8.0032  -7.9710  -7.7910  -7.7283  -7.6627  -7.5990  -7.4415  -7.3318
    -7.1649  -6.9982  -6.8660  -6.7804  -6.6090  -6.5681  -6.5401  -6.3053
    -6.1426  -6.1069  -5.9843  -5.9222  -5.7946  -5.5894  -4.0260  -3.8972
    -3.8726  -3.6329  -3.5706  -3.5097  -3.3516  -3.1185  -3.0196  -2.9596
    -2.6765  -2.5262  -2.4425  -2.3076  -1.7418  -1.5944  -1.5648  -1.2073
    -1.1220  -0.9283  -0.7142  -0.3135  -0.2043  -0.1063   0.0276   0.1258
     0.2278   0.4821   0.5494   0.6639   0.7766   0.8242   0.8571   0.9863
     1.0713   1.2562   1.2721   1.3402   1.4565   1.5301   1.6268   1.7238
     1.8183   1.8726   1.9010   1.9346   2.0642   2.0990   2.1334   2.2230
     2.3409   2.3996   2.5332   2.5555   2.5926   2.6234   2.6822   2.7350
     2.8250   2.9825   3.0012   3.1282   3.1489   3.2104   3.3164   3.3973
     3.4847   3.6431   3.6814   3.7307   3.8708   3.9484   4.0624   4.2147
     4.2370   4.3192   4.3463   4.4283   4.4485   4.5637   4.6126   4.6283
     4.6772   4.7018   4.8582   4.8788   4.9070   5.0214   5.0416   5.1470
     5.3382   5.4722   5.5275   5.5916   5.6351   5.7320   5.8032   5.8497
     5.9678   6.0757   6.3049   6.4131   6.4242   6.5010   6.5247   6.5387
     6.6074   6.6646   6.8325   6.8939

     occupation numbers 
     1.0000   1.0000   1.0000   1.0000   1.0000   1.0000   1.0000   1.0000
     1.0000   1.0000   1.0000   1.0000   1.0000   1.0000   1.0000   1.0000
     1.0000   1.0000   1.0000   1.0000   1.0000   1.0000   1.0000   1.0000
     1.0000   1.0000   1.0000   1.0000   1.0000   1.0000   1.0000   1.0000
     1.0000   1.0000   1.0000   1.0000   1.0000   1.0000   1.0000   1.0000
     1.0000   1.0000   1.0000   1.0000   1.0000   1.0000   1.0000   1.0000
     1.0000   1.0000   1.0000   1.0000   1.0000   1.0000   1.0000   1.0000
     1.0000   1.0000   1.0000   1.0000   1.0000   1.0000   1.0000   1.0000
     1.0000   1.0000   1.0000   1.0000   1.0000   1.0000   0.0000   0.0000
     0.0000   0.0000   0.0000   0.0000   0.0000   0.0000   0.0000   0.0000
     0.0000   0.0000   0.0000   0.0000   0.0000   0.0000   0.0000   0.0000
     0.0000   0.0000   0.0000   0.0000   0.0000   0.0000   0.0000   0.0000
     0.0000   0.0000   0.0000   0.0000   0.0000   0.0000   0.0000   0.0000
     0.0000   0.0000   0.0000   0.0000   0.0000   0.0000   0.0000   0.0000
     0.0000   0.0000   0.0000   0.0000   0.0000   0.0000   0.0000   0.0000
     0.0000   0.0000   0.0000   0.0000   0.0000   0.0000   0.0000   0.0000
     0.0000   0.0000   0.0000   0.0000   0.0000   0.0000   0.0000   0.0000
     0.0000   0.0000   0.0000   0.0000   0.0000   0.0000   0.0000   0.0000
     0.0000   0.0000   0.0000   0.0000   0.0000   0.0000   0.0000   0.0000
     0.0000   0.0000   0.0000   0.0000   0.0000   0.0000   0.0000   0.0000
     0.0000   0.0000   0.0000   0.0000   0.0000   0.0000   0.0000   0.0000
     0.0000   0.0000   0.0000   0.0000   0.0000   0.0000   0.0000   0.0000
     0.0000   0.0000   0.0000   0.0000

          k =-0.0833 0.3368 0.0000 ( 13752 PWs)   bands (ev):

   -86.6105 -86.5917 -84.3845 -84.3652 -57.1373 -57.0715 -56.8306 -56.8097
   -56.4459 -56.3837 -54.4719 -54.4027 -54.1976 -54.1770 -53.9182 -53.8518
   -18.6596 -18.6358 -17.9939 -17.9841 -17.9645 -17.9410 -17.8515 -17.8287
   -17.7008 -17.6830 -17.6820 -17.6670 -10.7586 -10.4349 -10.2160  -9.9299
    -9.7416  -9.7050  -9.6129  -9.5464  -9.4966  -9.3602  -9.0164  -8.9322
    -8.8392  -8.6691  -8.5672  -8.5193  -8.3398  -8.2249  -8.1524  -8.0366
    -7.9681  -7.9132  -7.8022  -7.7181  -7.6130  -7.5259  -7.4700  -7.3765
    -7.2295  -7.0853  -6.9404  -6.8215  -6.6693  -6.6462  -6.5549  -6.3260
    -6.2516  -6.0691  -5.9532  -5.8929  -5.7820  -5.5905  -4.0201  -3.9154
    -3.8233  -3.7100  -3.6262  -3.5576  -3.3233  -3.0439  -3.0235  -2.8881
    -2.6956  -2.5661  -2.4010  -2.3131  -1.6898  -1.4933  -1.3231  -1.0970
    -1.0929  -0.9765  -0.8608  -0.4776  -0.3641  -0.1266  -0.0738   0.0712
     0.2279   0.3746   0.4361   0.6433   0.6536   0.8243   0.8859   0.9280
     1.0924   1.1747   1.2039   1.2570   1.3998   1.4930   1.5326   1.5796
     1.6965   1.7180   1.7827   1.8482   1.9463   1.9754   2.0983   2.1277
     2.2797   2.3979   2.4473   2.5571   2.5690   2.7340   2.7764   2.9096
     2.9901   3.0498   3.0749   3.1078   3.1777   3.2488   3.3178   3.3649
     3.3809   3.4780   3.5047   3.7708   3.8134   3.9571   4.1480   4.2218
     4.2500   4.2976   4.3429   4.5831   4.6157   4.6598   4.7138   4.7644
     4.7922   4.9688   5.0206   5.1129   5.1528   5.2009   5.2284   5.3788
     5.4094   5.4650   5.5159   5.6108   5.7271   5.7979   5.8509   5.9450
     6.1871   6.2568   6.3145   6.4388   6.4625   6.5683   6.6881   6.7720
     6.7813   6.8821   6.8918   6.9825

     occupation numbers 
     1.0000   1.0000   1.0000   1.0000   1.0000   1.0000   1.0000   1.0000
     1.0000   1.0000   1.0000   1.0000   1.0000   1.0000   1.0000   1.0000
     1.0000   1.0000   1.0000   1.0000   1.0000   1.0000   1.0000   1.0000
     1.0000   1.0000   1.0000   1.0000   1.0000   1.0000   1.0000   1.0000
     1.0000   1.0000   1.0000   1.0000   1.0000   1.0000   1.0000   1.0000
     1.0000   1.0000   1.0000   1.0000   1.0000   1.0000   1.0000   1.0000
     1.0000   1.0000   1.0000   1.0000   1.0000   1.0000   1.0000   1.0000
     1.0000   1.0000   1.0000   1.0000   1.0000   1.0000   1.0000   1.0000
     1.0000   1.0000   1.0000   1.0000   1.0000   1.0000   0.0000   0.0000
     0.0000   0.0000   0.0000   0.0000   0.0000   0.0000   0.0000   0.0000
     0.0000   0.0000   0.0000   0.0000   0.0000   0.0000   0.0000   0.0000
     0.0000   0.0000   0.0000   0.0000   0.0000   0.0000   0.0000   0.0000
     0.0000   0.0000   0.0000   0.0000   0.0000   0.0000   0.0000   0.0000
     0.0000   0.0000   0.0000   0.0000   0.0000   0.0000   0.0000   0.0000
     0.0000   0.0000   0.0000   0.0000   0.0000   0.0000   0.0000   0.0000
     0.0000   0.0000   0.0000   0.0000   0.0000   0.0000   0.0000   0.0000
     0.0000   0.0000   0.0000   0.0000   0.0000   0.0000   0.0000   0.0000
     0.0000   0.0000   0.0000   0.0000   0.0000   0.0000   0.0000   0.0000
     0.0000   0.0000   0.0000   0.0000   0.0000   0.0000   0.0000   0.0000
     0.0000   0.0000   0.0000   0.0000   0.0000   0.0000   0.0000   0.0000
     0.0000   0.0000   0.0000   0.0000   0.0000   0.0000   0.0000   0.0000
     0.0000   0.0000   0.0000   0.0000   0.0000   0.0000   0.0000   0.0000
     0.0000   0.0000   0.0000   0.0000

          k =-0.0833 0.4330 0.0000 ( 13741 PWs)   bands (ev):

   -86.6054 -86.5936 -84.3795 -84.3672 -57.1232 -57.0758 -56.8232 -56.8136
   -56.4334 -56.3884 -54.4570 -54.4070 -54.1909 -54.1806 -53.9049 -53.8568
   -18.5603 -18.5397 -18.1034 -18.0988 -17.9131 -17.8898 -17.8729 -17.8499
   -17.7360 -17.7173 -17.6930 -17.6783 -10.7252 -10.4136 -10.1703  -9.8822
    -9.7567  -9.6978  -9.5945  -9.4643  -9.4167  -9.3307  -8.9696  -8.9215
    -8.7947  -8.7542  -8.5549  -8.4943  -8.3811  -8.2061  -8.1692  -8.1110
    -8.0048  -7.8910  -7.8112  -7.7585  -7.6092  -7.4319  -7.3927  -7.2955
    -7.2248  -7.1205  -7.0382  -6.8286  -6.7108  -6.6650  -6.5870  -6.3462
    -6.2995  -6.0397  -5.9647  -5.8977  -5.7675  -5.5959  -3.9848  -3.9207
    -3.7960  -3.7559  -3.6817  -3.6495  -3.2917  -3.0769  -2.9852  -2.8627
    -2.6546  -2.5634  -2.3763  -2.3226  -1.8442  -1.2875  -1.2233  -1.0719
    -1.0211  -0.8503  -0.8280  -0.5695  -0.5035  -0.2197  -0.1939  -0.1546
    -0.0280   0.1142   0.2112   0.4253   0.6281   0.6896   0.8462   0.8920
     0.9996   1.1415   1.2007   1.4098   1.4586   1.4985   1.5253   1.6151
     1.6354   1.6638   1.7445   1.8217   1.8301   2.0166   2.0810   2.1952
     2.2278   2.4463   2.5147   2.5487   2.6451   2.7419   2.7627   2.8592
     2.8991   2.9318   3.0459   3.0637   3.1548   3.1906   3.2304   3.3467
     3.3970   3.5980   3.6893   3.9310   4.0029   4.1591   4.1789   4.3074
     4.3314   4.4412   4.4555   4.5005   4.6491   4.7404   4.7664   4.8649
     4.9284   5.0446   5.1796   5.3020   5.3161   5.3960   5.4351   5.5187
     5.5450   5.5919   5.6535   5.7196   5.7408   5.8348   5.9076   6.0572
     6.2711   6.3530   6.5357   6.6110   6.6436   6.7263   6.8073   6.8705
     6.8836   6.9652   6.9843   7.0573

     occupation numbers 
     1.0000   1.0000   1.0000   1.0000   1.0000   1.0000   1.0000   1.0000
     1.0000   1.0000   1.0000   1.0000   1.0000   1.0000   1.0000   1.0000
     1.0000   1.0000   1.0000   1.0000   1.0000   1.0000   1.0000   1.0000
     1.0000   1.0000   1.0000   1.0000   1.0000   1.0000   1.0000   1.0000
     1.0000   1.0000   1.0000   1.0000   1.0000   1.0000   1.0000   1.0000
     1.0000   1.0000   1.0000   1.0000   1.0000   1.0000   1.0000   1.0000
     1.0000   1.0000   1.0000   1.0000   1.0000   1.0000   1.0000   1.0000
     1.0000   1.0000   1.0000   1.0000   1.0000   1.0000   1.0000   1.0000
     1.0000   1.0000   1.0000   1.0000   1.0000   1.0000   0.0000   0.0000
     0.0000   0.0000   0.0000   0.0000   0.0000   0.0000   0.0000   0.0000
     0.0000   0.0000   0.0000   0.0000   0.0000   0.0000   0.0000   0.0000
     0.0000   0.0000   0.0000   0.0000   0.0000   0.0000   0.0000   0.0000
     0.0000   0.0000   0.0000   0.0000   0.0000   0.0000   0.0000   0.0000
     0.0000   0.0000   0.0000   0.0000   0.0000   0.0000   0.0000   0.0000
     0.0000   0.0000   0.0000   0.0000   0.0000   0.0000   0.0000   0.0000
     0.0000   0.0000   0.0000   0.0000   0.0000   0.0000   0.0000   0.0000
     0.0000   0.0000   0.0000   0.0000   0.0000   0.0000   0.0000   0.0000
     0.0000   0.0000   0.0000   0.0000   0.0000   0.0000   0.0000   0.0000
     0.0000   0.0000   0.0000   0.0000   0.0000   0.0000   0.0000   0.0000
     0.0000   0.0000   0.0000   0.0000   0.0000   0.0000   0.0000   0.0000
     0.0000   0.0000   0.0000   0.0000   0.0000   0.0000   0.0000   0.0000
     0.0000   0.0000   0.0000   0.0000   0.0000   0.0000   0.0000   0.0000
     0.0000   0.0000   0.0000   0.0000

          k =-0.0833 0.5292 0.0000 ( 13770 PWs)   bands (ev):

   -86.6095 -86.5982 -84.3835 -84.3716 -57.1383 -57.0863 -56.8361 -56.8240
   -56.4483 -56.3969 -54.4728 -54.4180 -54.2052 -54.1906 -53.9210 -53.8657
   -18.4688 -18.4502 -18.2011 -18.1995 -17.8847 -17.8640 -17.8614 -17.8407
   -17.7765 -17.7579 -17.6993 -17.6851 -10.7116 -10.4063 -10.1254  -9.8405
    -9.7660  -9.7028  -9.5262  -9.3978  -9.3619  -9.3266  -8.9804  -8.9063
    -8.8622  -8.7380  -8.6246  -8.5346  -8.3617  -8.3171  -8.2189  -8.1215
    -7.9827  -7.8978  -7.8331  -7.7167  -7.6589  -7.3751  -7.3240  -7.2686
    -7.2021  -7.0910  -7.0203  -6.8459  -6.7393  -6.7003  -6.6359  -6.3734
    -6.2866  -6.0790  -5.9670  -5.8928  -5.7628  -5.6215  -3.9833  -3.9408
    -3.8477  -3.7767  -3.7244  -3.7116  -3.3005  -3.1088  -2.9758  -2.8600
    -2.6717  -2.5589  -2.3760  -2.3263  -1.9604  -1.4086  -1.0352  -0.9284
    -0.8124  -0.7556  -0.7339  -0.6233  -0.5863  -0.5372  -0.4208  -0.3050
    -0.1210  -0.0253   0.0658   0.2610   0.5710   0.6456   0.7682   0.8372
     0.8921   1.0958   1.2256   1.3292   1.4969   1.5259   1.6031   1.6213
     1.6936   1.7221   1.7961   1.8783   1.9113   2.0330   2.1451   2.1833
     2.2609   2.3985   2.4596   2.5465   2.6930   2.7249   2.7396   2.7628
     2.8441   2.8789   2.9196   3.0097   3.0335   3.1268   3.2131   3.3254
     3.5496   3.7086   3.9231   4.0945   4.1354   4.1888   4.2414   4.3048
     4.4129   4.4894   4.5150   4.6092   4.7467   4.8504   4.8734   4.9418
     5.0523   5.1486   5.2013   5.2350   5.2767   5.3354   5.3601   5.4605
     5.8132   5.8906   5.9329   5.9970   6.0719   6.1017   6.1180   6.2121
     6.2956   6.3548   6.3946   6.4488   6.5716   6.6911   6.7900   6.9075
     6.9678   7.0234   7.0965   7.1459

     occupation numbers 
     1.0000   1.0000   1.0000   1.0000   1.0000   1.0000   1.0000   1.0000
     1.0000   1.0000   1.0000   1.0000   1.0000   1.0000   1.0000   1.0000
     1.0000   1.0000   1.0000   1.0000   1.0000   1.0000   1.0000   1.0000
     1.0000   1.0000   1.0000   1.0000   1.0000   1.0000   1.0000   1.0000
     1.0000   1.0000   1.0000   1.0000   1.0000   1.0000   1.0000   1.0000
     1.0000   1.0000   1.0000   1.0000   1.0000   1.0000   1.0000   1.0000
     1.0000   1.0000   1.0000   1.0000   1.0000   1.0000   1.0000   1.0000
     1.0000   1.0000   1.0000   1.0000   1.0000   1.0000   1.0000   1.0000
     1.0000   1.0000   1.0000   1.0000   1.0000   1.0000   0.0000   0.0000
     0.0000   0.0000   0.0000   0.0000   0.0000   0.0000   0.0000   0.0000
     0.0000   0.0000   0.0000   0.0000   0.0000   0.0000   0.0000   0.0000
     0.0000   0.0000   0.0000   0.0000   0.0000   0.0000   0.0000   0.0000
     0.0000   0.0000   0.0000   0.0000   0.0000   0.0000   0.0000   0.0000
     0.0000   0.0000   0.0000   0.0000   0.0000   0.0000   0.0000   0.0000
     0.0000   0.0000   0.0000   0.0000   0.0000   0.0000   0.0000   0.0000
     0.0000   0.0000   0.0000   0.0000   0.0000   0.0000   0.0000   0.0000
     0.0000   0.0000   0.0000   0.0000   0.0000   0.0000   0.0000   0.0000
     0.0000   0.0000   0.0000   0.0000   0.0000   0.0000   0.0000   0.0000
     0.0000   0.0000   0.0000   0.0000   0.0000   0.0000   0.0000   0.0000
     0.0000   0.0000   0.0000   0.0000   0.0000   0.0000   0.0000   0.0000
     0.0000   0.0000   0.0000   0.0000   0.0000   0.0000   0.0000   0.0000
     0.0000   0.0000   0.0000   0.0000   0.0000   0.0000   0.0000   0.0000
     0.0000   0.0000   0.0000   0.0000

          k =-0.1667 0.3849 0.0000 ( 13738 PWs)   bands (ev):

   -86.6047 -86.5935 -84.3787 -84.3670 -57.1203 -57.0749 -56.8195 -56.8172
   -56.4305 -56.3871 -54.4538 -54.4062 -54.1871 -54.1846 -53.9017 -53.8554
   -18.5820 -18.5609 -18.0595 -18.0547 -17.9251 -17.9018 -17.8964 -17.8738
   -17.7218 -17.7030 -17.6904 -17.6749 -10.6794 -10.3630 -10.2216  -9.9339
    -9.7413  -9.6971  -9.5964  -9.5290  -9.4588  -9.3428  -8.9729  -8.9523
    -8.8090  -8.7410  -8.5610  -8.4528  -8.3672  -8.2037  -8.1678  -8.1209
    -8.0259  -7.8819  -7.7879  -7.6873  -7.5747  -7.4941  -7.4069  -7.3279
    -7.2200  -7.0618  -6.9656  -6.8308  -6.7562  -6.7037  -6.5762  -6.3695
    -6.2396  -6.0701  -5.9370  -5.8722  -5.7712  -5.5995  -4.0019  -3.9226
    -3.7925  -3.7120  -3.6680  -3.5777  -3.3731  -3.0521  -2.9408  -2.8903
    -2.6521  -2.4994  -2.4203  -2.3139  -1.7389  -1.3319  -1.2144  -1.1872
    -1.1339  -0.9143  -0.9003  -0.7100  -0.4152  -0.1942  -0.0707   0.0193
     0.0646   0.2196   0.2379   0.3976   0.4224   0.6115   0.7910   0.8995
     1.0502   1.0839   1.1296   1.2003   1.3755   1.4604   1.4840   1.5330
     1.5987   1.7165   1.7248   1.8216   1.9085   2.0062   2.0680   2.1443
     2.3293   2.4871   2.5233   2.6722   2.7508   2.8664   2.9182   2.9919
     3.0159   3.0421   3.1801   3.2111   3.2594   3.2918   3.3393   3.4181
     3.4571   3.5002   3.7435   3.9712   4.0466   4.1708   4.2512   4.3043
     4.3422   4.3985   4.4759   4.4952   4.5016   4.6298   4.6531   4.7442
     4.7801   4.9476   5.0336   5.1993   5.3162   5.4357   5.5073   5.5979
     5.6351   5.6640   5.6847   5.7233   5.7801   5.8038   5.9060   5.9768
     6.1443   6.1939   6.2660   6.3326   6.4893   6.5907   6.7149   6.8102
     6.8932   6.9573   7.0074   7.0388

     occupation numbers 
     1.0000   1.0000   1.0000   1.0000   1.0000   1.0000   1.0000   1.0000
     1.0000   1.0000   1.0000   1.0000   1.0000   1.0000   1.0000   1.0000
     1.0000   1.0000   1.0000   1.0000   1.0000   1.0000   1.0000   1.0000
     1.0000   1.0000   1.0000   1.0000   1.0000   1.0000   1.0000   1.0000
     1.0000   1.0000   1.0000   1.0000   1.0000   1.0000   1.0000   1.0000
     1.0000   1.0000   1.0000   1.0000   1.0000   1.0000   1.0000   1.0000
     1.0000   1.0000   1.0000   1.0000   1.0000   1.0000   1.0000   1.0000
     1.0000   1.0000   1.0000   1.0000   1.0000   1.0000   1.0000   1.0000
     1.0000   1.0000   1.0000   1.0000   1.0000   1.0000   0.0000   0.0000
     0.0000   0.0000   0.0000   0.0000   0.0000   0.0000   0.0000   0.0000
     0.0000   0.0000   0.0000   0.0000   0.0000   0.0000   0.0000   0.0000
     0.0000   0.0000   0.0000   0.0000   0.0000   0.0000   0.0000   0.0000
     0.0000   0.0000   0.0000   0.0000   0.0000   0.0000   0.0000   0.0000
     0.0000   0.0000   0.0000   0.0000   0.0000   0.0000   0.0000   0.0000
     0.0000   0.0000   0.0000   0.0000   0.0000   0.0000   0.0000   0.0000
     0.0000   0.0000   0.0000   0.0000   0.0000   0.0000   0.0000   0.0000
     0.0000   0.0000   0.0000   0.0000   0.0000   0.0000   0.0000   0.0000
     0.0000   0.0000   0.0000   0.0000   0.0000   0.0000   0.0000   0.0000
     0.0000   0.0000   0.0000   0.0000   0.0000   0.0000   0.0000   0.0000
     0.0000   0.0000   0.0000   0.0000   0.0000   0.0000   0.0000   0.0000
     0.0000   0.0000   0.0000   0.0000   0.0000   0.0000   0.0000   0.0000
     0.0000   0.0000   0.0000   0.0000   0.0000   0.0000   0.0000   0.0000
     0.0000   0.0000   0.0000   0.0000

          k =-0.1667 0.4811 0.0000 ( 13768 PWs)   bands (ev):

   -86.6091 -86.5980 -84.3830 -84.3716 -57.1325 -57.0885 -56.8363 -56.8245
   -56.4433 -56.4003 -54.4664 -54.4202 -54.2047 -54.1920 -53.9158 -53.8695
   -18.4820 -18.4640 -18.1615 -18.1608 -17.9190 -17.8965 -17.8747 -17.8519
   -17.7571 -17.7379 -17.7002 -17.6851 -10.6298 -10.3223 -10.1856  -9.8948
    -9.7430  -9.6768  -9.5780  -9.4617  -9.3895  -9.3646  -9.0087  -8.9232
    -8.8937  -8.7712  -8.6209  -8.5495  -8.3565  -8.2541  -8.1969  -8.0840
    -8.0413  -7.8773  -7.7384  -7.6833  -7.5740  -7.4313  -7.3468  -7.2707
    -7.1705  -7.0760  -7.0040  -6.8396  -6.8075  -6.7416  -6.6011  -6.3868
    -6.2601  -6.0425  -5.9829  -5.8899  -5.7737  -5.6244  -3.9798  -3.9366
    -3.8047  -3.7454  -3.6972  -3.6618  -3.3930  -3.1028  -2.9480  -2.8912
    -2.6211  -2.5381  -2.3703  -2.3216  -1.8730  -1.3429  -1.3263  -1.0568
    -0.9506  -0.8757  -0.7864  -0.6440  -0.5361  -0.3370  -0.2648  -0.1970
    -0.1342   0.0149   0.0441   0.2111   0.4330   0.5501   0.5904   0.6785
     0.7987   0.9018   1.1535   1.3295   1.3730   1.4284   1.4848   1.5550
     1.5926   1.6917   1.7886   1.8499   1.8946   2.0644   2.1696   2.3143
     2.4305   2.5837   2.6340   2.7600   2.7949   2.8015   2.8842   2.9022
     3.0086   3.0403   3.2280   3.2556   3.3148   3.3802   3.4032   3.4164
     3.4729   3.5728   3.9720   4.1336   4.1677   4.1815   4.2371   4.2778
     4.3363   4.4280   4.5777   4.6467   4.6961   4.7634   4.8243   4.9031
     4.9692   5.0866   5.1239   5.2779   5.4011   5.4585   5.5164   5.5932
     5.6071   5.7044   5.7857   5.8573   5.9087   6.0082   6.0464   6.1543
     6.1974   6.2695   6.3129   6.3877   6.4932   6.5958   6.6960   6.8001
     6.8456   6.9928   7.0916   7.1054

     occupation numbers 
     1.0000   1.0000   1.0000   1.0000   1.0000   1.0000   1.0000   1.0000
     1.0000   1.0000   1.0000   1.0000   1.0000   1.0000   1.0000   1.0000
     1.0000   1.0000   1.0000   1.0000   1.0000   1.0000   1.0000   1.0000
     1.0000   1.0000   1.0000   1.0000   1.0000   1.0000   1.0000   1.0000
     1.0000   1.0000   1.0000   1.0000   1.0000   1.0000   1.0000   1.0000
     1.0000   1.0000   1.0000   1.0000   1.0000   1.0000   1.0000   1.0000
     1.0000   1.0000   1.0000   1.0000   1.0000   1.0000   1.0000   1.0000
     1.0000   1.0000   1.0000   1.0000   1.0000   1.0000   1.0000   1.0000
     1.0000   1.0000   1.0000   1.0000   1.0000   1.0000   0.0000   0.0000
     0.0000   0.0000   0.0000   0.0000   0.0000   0.0000   0.0000   0.0000
     0.0000   0.0000   0.0000   0.0000   0.0000   0.0000   0.0000   0.0000
     0.0000   0.0000   0.0000   0.0000   0.0000   0.0000   0.0000   0.0000
     0.0000   0.0000   0.0000   0.0000   0.0000   0.0000   0.0000   0.0000
     0.0000   0.0000   0.0000   0.0000   0.0000   0.0000   0.0000   0.0000
     0.0000   0.0000   0.0000   0.0000   0.0000   0.0000   0.0000   0.0000
     0.0000   0.0000   0.0000   0.0000   0.0000   0.0000   0.0000   0.0000
     0.0000   0.0000   0.0000   0.0000   0.0000   0.0000   0.0000   0.0000
     0.0000   0.0000   0.0000   0.0000   0.0000   0.0000   0.0000   0.0000
     0.0000   0.0000   0.0000   0.0000   0.0000   0.0000   0.0000   0.0000
     0.0000   0.0000   0.0000   0.0000   0.0000   0.0000   0.0000   0.0000
     0.0000   0.0000   0.0000   0.0000   0.0000   0.0000   0.0000   0.0000
     0.0000   0.0000   0.0000   0.0000   0.0000   0.0000   0.0000   0.0000
     0.0000   0.0000   0.0000   0.0000

          k =-0.2500 0.5292 0.0000 ( 13757 PWs)   bands (ev):

   -86.6047 -86.5991 -84.3785 -84.3729 -57.1151 -57.0966 -56.8310 -56.8220
   -56.4273 -56.4093 -54.4478 -54.4285 -54.1991 -54.1899 -53.8986 -53.8792
   -18.3938 -18.3792 -18.2280 -18.2228 -17.9638 -17.9409 -17.8350 -17.8127
   -17.7770 -17.7567 -17.7116 -17.6967 -10.4911 -10.2373 -10.1861  -9.9420
    -9.7241  -9.6425  -9.5416  -9.4902  -9.4527  -9.3779  -9.0557  -8.9869
    -8.8923  -8.8183  -8.7172  -8.5873  -8.4951  -8.2615  -8.1069  -8.0425
    -7.9667  -7.8255  -7.7029  -7.5906  -7.5257  -7.4237  -7.3311  -7.2256
    -7.1795  -7.0916  -6.9457  -6.8756  -6.8221  -6.7792  -6.5921  -6.4445
    -6.2063  -6.0257  -5.9886  -5.8645  -5.7502  -5.6572  -3.9669  -3.8905
    -3.8130  -3.7276  -3.6817  -3.6042  -3.4885  -3.1019  -2.9219  -2.8881
    -2.5462  -2.4799  -2.3635  -2.2801  -1.8524  -1.5964  -1.3439  -1.1432
    -0.9869  -0.8368  -0.7216  -0.5327  -0.5059  -0.4500  -0.3181  -0.2721
    -0.1487  -0.1302  -0.0403   0.0315   0.2868   0.3648   0.4445   0.4646
     0.5544   0.6760   0.9698   1.1217   1.3174   1.3569   1.5492   1.5792
     1.6208   1.6467   1.8437   1.9908   2.0176   2.0733   2.1931   2.3583
     2.4674   2.6135   2.7792   2.9026   3.0253   3.0870   3.1121   3.2070
     3.2381   3.2739   3.3107   3.4078   3.4212   3.4519   3.5276   3.5713
     3.6617   3.7987   3.8610   3.9517   3.9729   4.0801   4.3068   4.3879
     4.5343   4.6206   4.6458   4.6891   4.7619   4.8477   4.9879   5.1438
     5.1736   5.2660   5.3097   5.3359   5.4434   5.4930   5.6025   5.6807
     5.7099   5.7822   5.8009   5.8914   5.8998   5.9309   5.9662   6.0106
     6.0808   6.1979   6.2564   6.3421   6.4807   6.5605   6.5881   6.6716
     6.6895   6.7597   6.7994   6.8778

     occupation numbers 
     1.0000   1.0000   1.0000   1.0000   1.0000   1.0000   1.0000   1.0000
     1.0000   1.0000   1.0000   1.0000   1.0000   1.0000   1.0000   1.0000
     1.0000   1.0000   1.0000   1.0000   1.0000   1.0000   1.0000   1.0000
     1.0000   1.0000   1.0000   1.0000   1.0000   1.0000   1.0000   1.0000
     1.0000   1.0000   1.0000   1.0000   1.0000   1.0000   1.0000   1.0000
     1.0000   1.0000   1.0000   1.0000   1.0000   1.0000   1.0000   1.0000
     1.0000   1.0000   1.0000   1.0000   1.0000   1.0000   1.0000   1.0000
     1.0000   1.0000   1.0000   1.0000   1.0000   1.0000   1.0000   1.0000
     1.0000   1.0000   1.0000   1.0000   1.0000   1.0000   0.0000   0.0000
     0.0000   0.0000   0.0000   0.0000   0.0000   0.0000   0.0000   0.0000
     0.0000   0.0000   0.0000   0.0000   0.0000   0.0000   0.0000   0.0000
     0.0000   0.0000   0.0000   0.0000   0.0000   0.0000   0.0000   0.0000
     0.0000   0.0000   0.0000   0.0000   0.0000   0.0000   0.0000   0.0000
     0.0000   0.0000   0.0000   0.0000   0.0000   0.0000   0.0000   0.0000
     0.0000   0.0000   0.0000   0.0000   0.0000   0.0000   0.0000   0.0000
     0.0000   0.0000   0.0000   0.0000   0.0000   0.0000   0.0000   0.0000
     0.0000   0.0000   0.0000   0.0000   0.0000   0.0000   0.0000   0.0000
     0.0000   0.0000   0.0000   0.0000   0.0000   0.0000   0.0000   0.0000
     0.0000   0.0000   0.0000   0.0000   0.0000   0.0000   0.0000   0.0000
     0.0000   0.0000   0.0000   0.0000   0.0000   0.0000   0.0000   0.0000
     0.0000   0.0000   0.0000   0.0000   0.0000   0.0000   0.0000   0.0000
     0.0000   0.0000   0.0000   0.0000   0.0000   0.0000   0.0000   0.0000
     0.0000   0.0000   0.0000   0.0000

     highest occupied, lowest unoccupied level (ev):    -5.5396   -4.0359

     Writing all to output data dir ./CrI3.save/ :
     XML data file, pseudopotentials, collected wavefunctions
 
     init_run     :      0.21s CPU      0.59s WALL (       1 calls)
     electrons    :     13.81s CPU     14.87s WALL (       1 calls)

     Called by init_run:
     wfcinit      :      0.00s CPU      0.00s WALL (       1 calls)
     wfcinit:atom :      0.01s CPU      0.01s WALL (       7 calls)
     wfcinit:wfcr :      0.46s CPU      0.87s WALL (       7 calls)
     potinit      :      0.01s CPU      0.05s WALL (       1 calls)
     hinit0       :      0.17s CPU      0.38s WALL (       1 calls)

     Called by electrons:
     c_bands      :     13.81s CPU     14.87s WALL (       1 calls)
     v_of_rho     :      0.00s CPU      0.02s WALL (       1 calls)
     v_h          :      0.00s CPU      0.00s WALL (       1 calls)
     v_xc         :      0.00s CPU      0.02s WALL (       1 calls)

     Called by c_bands:
     init_us_2    :      0.00s CPU      0.00s WALL (       7 calls)
     cegterg      :     12.97s CPU     13.26s WALL (      20 calls)

     Called by sum_band:

     Called by *egterg:
     cdiaghg      :      3.58s CPU      4.01s WALL (     361 calls)
                                        4.00s GPU  (     361 calls)
     cegterg:over :      0.59s CPU      0.60s WALL (     354 calls)
     cegterg:upda :      0.60s CPU      0.60s WALL (     354 calls)
     cegterg:last :      0.13s CPU      0.13s WALL (      49 calls)
     h_psi        :      8.33s CPU      8.62s WALL (     381 calls)
     g_psi        :      0.02s CPU      0.02s WALL (     354 calls)

     Called by h_psi:
     h_psi:calbec :      0.05s CPU      0.14s WALL (     381 calls)
     vloc_psi     :      8.05s CPU      8.24s WALL (     381 calls)
                                        8.24s GPU  (     381 calls)
     add_vuspsi   :      0.20s CPU      0.21s WALL (     381 calls)

     General routines
     calbec       :      0.05s CPU      0.14s WALL (     381 calls)
     fft          :      0.00s CPU      0.26s WALL (      23 calls)
                                        0.26s GPU  (      23 calls)
     fftw         :      0.94s CPU      4.45s WALL (  109552 calls)
                                        3.74s GPU  (  109552 calls)
 
     Parallel routines
 
     PWSCF        :     14.95s CPU     17.25s WALL

 
   This run was terminated on:  12:16:24  16Jun2026            

=------------------------------------------------------------------------------=
   JOB DONE.
=------------------------------------------------------------------------------=
