
     Program PWSCF v.7.3.1 starts on 27Apr2026 at  9:42:35 
        Git branch: HEAD
        Last git commit: 7fd60c9bc9fe7a7d1fe6f1049f4afba0eab9aeef-dirty
        Last git commit date: Thu Feb 29 10:18:05 2024 +0000
        Last git commit subject: Merge branch 'master_qe_7.3.1' into 'master'

     This program is part of the open-source Quantum ESPRESSO suite
     for quantum simulation of materials; please cite
         "P. Giannozzi et al., J. Phys.:Condens. Matter 21 395502 (2009);
         "P. Giannozzi et al., J. Phys.:Condens. Matter 29 465901 (2017);
         "P. Giannozzi et al., J. Chem. Phys. 152 154105 (2020);
          URL http://www.quantum-espresso.org", 
     in publications or presentations arising from this work. More details at
     http://www.quantum-espresso.org/quote

     Parallel version (MPI & OpenMP), running on      64 processor cores
     Number of MPI processes:                 4
     Threads/MPI process:                    16

     MPI processes distributed on     1 nodes
     220436 MiB available memory on the printing compute node when the environment starts
 
     Reading input from nscf.in

     Current dimensions of program PWSCF are:
     Max number of different atomic species (ntypx) = 10
     Max number of k-points (npk) =  40000
     Max angular momentum in pseudopotentials (lmaxx) =  4

     Atomic positions and unit cell read from directory:
     ./MoS2.save/
 
     Message from routine setup:
     using ibrav=0 with symmetry is DISCOURAGED, use correct ibrav instead
 
     K-points division:     npool     =       4
     Subspace diagonalization in iterative solution of the eigenvalue problem:
     a serial algorithm will be used

 
     G-vector sticks info
     --------------------
     sticks:   dense  smooth     PW     G-vecs:    dense   smooth      PW
     Sum         301     301    127                15631    15631    4595
 
     Using Slab Decomposition
 


     bravais-lattice index     =            0
     lattice parameter (alat)  =       5.9796  a.u.
     unit-cell volume          =     702.2012 (a.u.)^3
     number of atoms/cell      =            3
     number of atomic types    =            2
     number of electrons       =        26.00
     number of Kohn-Sham states=           82
     kinetic-energy cutoff     =      30.0000  Ry
     charge density cutoff     =     120.0000  Ry
     Exchange-correlation= PBE
                           (   1   4   3   4   0   0   0)
     Non magnetic calculation with spin-orbit


     GPU acceleration is ACTIVE.  4 visible GPUs per MPI rank


     celldm(1)=   5.979645  celldm(2)=   0.000000  celldm(3)=   0.000000
     celldm(4)=   0.000000  celldm(5)=   0.000000  celldm(6)=   0.000000

     crystal axes: (cart. coord. in units of alat)
               a(1) = (   1.000000   0.000000   0.000000 )  
               a(2) = (  -0.499999   0.866025   0.000000 )  
               a(3) = (   0.000000   0.000000   3.792318 )  

     reciprocal axes: (cart. coord. in units 2 pi/alat)
               b(1) = (  1.000000  0.577349 -0.000000 )  
               b(2) = (  0.000000  1.154701  0.000000 )  
               b(3) = (  0.000000 -0.000000  0.263691 )  


     PseudoPot. # 1 for Mo read from file:
     ./Mo.upf
     MD5 check sum: 4e1c3579de4f68baf863f15f5be96aa1
     Pseudo is Norm-conserving + core correction, Zval = 14.0
     Generated using ONCVPSP code by D. R. Hamann
     Using radial grid of 1640 points, 10 beta functions with: 
                l(1) =   0
                l(2) =   0
                l(3) =   1
                l(4) =   1
                l(5) =   1
                l(6) =   1
                l(7) =   2
                l(8) =   2
                l(9) =   2
               l(10) =   2

     PseudoPot. # 2 for S  read from file:
     ./S.upf
     MD5 check sum: a7319d53700e7dada26ada44d0048388
     Pseudo is Norm-conserving + core correction, Zval =  6.0
     Generated using ONCVPSP code by D. R. Hamann
     Using radial grid of 1146 points, 10 beta functions with: 
                l(1) =   0
                l(2) =   0
                l(3) =   1
                l(4) =   1
                l(5) =   1
                l(6) =   1
                l(7) =   2
                l(8) =   2
                l(9) =   2
               l(10) =   2

     atomic species   valence    mass     pseudopotential
     Mo               14.00    95.94000     Mo( 1.00)
     S                 6.00    32.07000     S ( 1.00)

      2 Sym. Ops. (no inversion) found



   Cartesian axes

     site n.     atom                  positions (alat units)
         1        Mo     tau(   1) = (   0.5000009   0.2886748   0.0000000  )
         2        S      tau(   2) = (   0.0000003   0.5773505   0.5003129  )
         3        S      tau(   3) = (   0.0000003   0.5773505  -0.5003129  )

     number of k points=    64
                       cart. coord. in units 2pi/alat
        k(    1) = (   0.0000000   0.0000000   0.0000000), wk =   0.0156250
        k(    2) = (   0.0000000   0.1443376   0.0000000), wk =   0.0156250
        k(    3) = (   0.0000000   0.2886752   0.0000000), wk =   0.0156250
        k(    4) = (   0.0000000   0.4330127   0.0000000), wk =   0.0156250
        k(    5) = (   0.0000000   0.5773503   0.0000000), wk =   0.0156250
        k(    6) = (   0.0000000   0.7216879   0.0000000), wk =   0.0156250
        k(    7) = (   0.0000000   0.8660255   0.0000000), wk =   0.0156250
        k(    8) = (   0.0000000   1.0103631   0.0000000), wk =   0.0156250
        k(    9) = (   0.1250000   0.0721686   0.0000000), wk =   0.0156250
        k(   10) = (   0.1250000   0.2165062   0.0000000), wk =   0.0156250
        k(   11) = (   0.1250000   0.3608438   0.0000000), wk =   0.0156250
        k(   12) = (   0.1250000   0.5051814   0.0000000), wk =   0.0156250
        k(   13) = (   0.1250000   0.6495189   0.0000000), wk =   0.0156250
        k(   14) = (   0.1250000   0.7938565   0.0000000), wk =   0.0156250
        k(   15) = (   0.1250000   0.9381941   0.0000000), wk =   0.0156250
        k(   16) = (   0.1250000   1.0825317   0.0000000), wk =   0.0156250
        k(   17) = (   0.2500000   0.1443372   0.0000000), wk =   0.0156250
        k(   18) = (   0.2500000   0.2886748   0.0000000), wk =   0.0156250
        k(   19) = (   0.2500000   0.4330124   0.0000000), wk =   0.0156250
        k(   20) = (   0.2500000   0.5773500   0.0000000), wk =   0.0156250
        k(   21) = (   0.2500000   0.7216875   0.0000000), wk =   0.0156250
        k(   22) = (   0.2500000   0.8660251   0.0000000), wk =   0.0156250
        k(   23) = (   0.2500000   1.0103627   0.0000000), wk =   0.0156250
        k(   24) = (   0.2500000   1.1547003   0.0000000), wk =   0.0156250
        k(   25) = (   0.3750000   0.2165058   0.0000000), wk =   0.0156250
        k(   26) = (   0.3750000   0.3608434   0.0000000), wk =   0.0156250
        k(   27) = (   0.3750000   0.5051810   0.0000000), wk =   0.0156250
        k(   28) = (   0.3750000   0.6495186   0.0000000), wk =   0.0156250
        k(   29) = (   0.3750000   0.7938561   0.0000000), wk =   0.0156250
        k(   30) = (   0.3750000   0.9381937   0.0000000), wk =   0.0156250
        k(   31) = (   0.3750000   1.0825313   0.0000000), wk =   0.0156250
        k(   32) = (   0.3750000   1.2268689   0.0000000), wk =   0.0156250
        k(   33) = (   0.5000000   0.2886744   0.0000000), wk =   0.0156250
        k(   34) = (   0.5000000   0.4330120   0.0000000), wk =   0.0156250
        k(   35) = (   0.5000000   0.5773496   0.0000000), wk =   0.0156250
        k(   36) = (   0.5000000   0.7216872   0.0000000), wk =   0.0156250
        k(   37) = (   0.5000000   0.8660248   0.0000000), wk =   0.0156250
        k(   38) = (   0.5000000   1.0103623   0.0000000), wk =   0.0156250
        k(   39) = (   0.5000000   1.1546999   0.0000000), wk =   0.0156250
        k(   40) = (   0.5000000   1.2990375   0.0000000), wk =   0.0156250
        k(   41) = (   0.6250000   0.3608430   0.0000000), wk =   0.0156250
        k(   42) = (   0.6250000   0.5051806   0.0000000), wk =   0.0156250
        k(   43) = (   0.6250000   0.6495182   0.0000000), wk =   0.0156250
        k(   44) = (   0.6250000   0.7938558   0.0000000), wk =   0.0156250
        k(   45) = (   0.6250000   0.9381934   0.0000000), wk =   0.0156250
        k(   46) = (   0.6250000   1.0825309   0.0000000), wk =   0.0156250
        k(   47) = (   0.6250000   1.2268685   0.0000000), wk =   0.0156250
        k(   48) = (   0.6250000   1.3712061   0.0000000), wk =   0.0156250
        k(   49) = (   0.7500000   0.4330116   0.0000000), wk =   0.0156250
        k(   50) = (   0.7500000   0.5773492   0.0000000), wk =   0.0156250
        k(   51) = (   0.7500000   0.7216868   0.0000000), wk =   0.0156250
        k(   52) = (   0.7500000   0.8660244   0.0000000), wk =   0.0156250
        k(   53) = (   0.7500000   1.0103620   0.0000000), wk =   0.0156250
        k(   54) = (   0.7500000   1.1546996   0.0000000), wk =   0.0156250
        k(   55) = (   0.7500000   1.2990371   0.0000000), wk =   0.0156250
        k(   56) = (   0.7500000   1.4433747   0.0000000), wk =   0.0156250
        k(   57) = (   0.8750000   0.5051803   0.0000000), wk =   0.0156250
        k(   58) = (   0.8750000   0.6495178   0.0000000), wk =   0.0156250
        k(   59) = (   0.8750000   0.7938554   0.0000000), wk =   0.0156250
        k(   60) = (   0.8750000   0.9381930   0.0000000), wk =   0.0156250
        k(   61) = (   0.8750000   1.0825306   0.0000000), wk =   0.0156250
        k(   62) = (   0.8750000   1.2268682   0.0000000), wk =   0.0156250
        k(   63) = (   0.8750000   1.3712057   0.0000000), wk =   0.0156250
        k(   64) = (   0.8750000   1.5155433   0.0000000), wk =   0.0156250

     Dense  grid:    15631 G-vectors     FFT dimensions: (  24,  24,  80)

     Estimated max dynamical RAM per process >      68.80 MB

     Estimated total dynamical RAM >     275.18 MB
 ----2D----2D----2D----2D----2D----2D----2D----2D----2D----2D----2D----2D
  The code is running with the 2D cutoff
  Please refer to:
  Sohier, T., Calandra, M., & Mauri, F. (2017), 
  Density functional perturbation theory for gated two-dimensional heterostructures:
  Theoretical developments and application to flexural phonons in graphene.
  Physical Review B, 96(7), 75448. https://doi.org/10.1103/PhysRevB.96.075448
 ----2D----2D----2D----2D----2D----2D----2D----2D----2D----2D----2D----2D

     The potential is recalculated from file :
     ./MoS2.save/charge-density

     Starting wfcs are   36 randomized atomic wfcs +   46 random wfcs

     Band Structure Calculation
     Davidson diagonalization with overlap

     ethr =  3.85E-13,  avg # of iterations = 38.9

     total cpu time spent up to now is       15.3 secs

     End of band structure calculation

          k = 0.0000 0.0000 0.0000 (  1947 PWs)   bands (ev):

   -65.4611 -65.4611 -42.0769 -42.0769 -39.5547 -39.5547 -39.3834 -39.3834
   -19.3741 -19.3741 -18.1773 -18.1773 -10.8758 -10.8758  -7.8618  -7.8618
    -7.8027  -7.8027  -7.1220  -7.1220  -6.7808  -6.7808  -6.6999  -6.6999
    -5.3814  -5.3814  -2.5748  -2.5748  -2.4989  -2.4989  -2.3339  -2.3339
    -2.3257  -2.3257   1.1024   1.1024   3.7465   3.7465   3.9534   3.9534
     4.7861   4.7861   5.5177   5.5177   5.5944   5.5944   7.4929   7.4929
     7.5104   7.5104   7.6637   7.6637  10.7730  10.7730  10.7876  10.7876
    10.8669  10.8669  11.1109  11.1109  11.1178  11.1178  11.2391  11.2391
    14.0374  14.0374  14.2798  14.2798  14.6667  14.6667  16.0706  16.0706
    18.0745  18.0745  18.2512  18.2512  20.6021  20.6021  20.8305  20.8305
    20.8459  20.8459

          k = 0.0000 0.1443 0.0000 (  1957 PWs)   bands (ev):

   -65.4771 -65.4771 -42.0942 -42.0942 -39.5648 -39.5648 -39.4240 -39.4240
   -19.1469 -19.1469 -18.0776 -18.0776 -10.6255 -10.6255  -8.3118  -8.3118
    -7.9118  -7.9118  -7.5909  -7.5909  -7.0902  -7.0902  -6.3730  -6.3730
    -5.5213  -5.5213  -2.8384  -2.8384  -2.7283  -2.7283  -2.5709  -2.5709
    -2.1656  -2.1656   2.0794   2.0794   4.0600   4.0600   4.5426   4.5426
     4.9771   4.9771   5.1945   5.1945   6.2732   6.2732   6.3522   6.3522
     7.4170   7.4170   7.6412   7.6412   9.5740   9.5740  10.3588  10.3588
    10.5631  10.5631  11.1717  11.1717  12.1026  12.1026  12.7391  12.7391
    14.7657  14.7657  14.9017  14.9017  16.0907  16.0907  16.2725  16.2725
    17.8848  17.8848  17.9783  17.9783  18.8979  18.8979  19.2878  19.2878
    20.2208  20.2208

          k = 0.0000 0.2887 0.0000 (  1947 PWs)   bands (ev):

   -65.4533 -65.4533 -42.1313 -42.1313 -39.5992 -39.5992 -39.4885 -39.4885
   -18.5456 -18.5456 -17.8149 -17.8149 -10.2738 -10.2738  -9.0400  -9.0400
    -8.9139  -8.9139  -7.7430  -7.7430  -7.0052  -7.0052  -6.6818  -6.6818
    -6.0905  -6.0905  -3.1595  -3.1595  -2.9585  -2.9585  -2.3563  -2.3563
    -1.5448  -1.5448   2.9881   2.9881   3.6595   3.6595   4.1727   4.1727
     5.1058   5.1058   5.4431   5.4431   7.0364   7.0364   7.0740   7.0740
     7.6959   7.6959   8.3431   8.3431   9.0109   9.0109   9.1683   9.1683
     9.7448   9.7448  11.9473  11.9473  13.6185  13.6185  14.6790  14.6790
    15.0523  15.0523  15.4636  15.4636  16.4113  16.4113  17.1731  17.1731
    17.2271  17.2271  17.4056  17.4056  18.1199  18.1199  18.8718  18.8718
    19.8157  19.8157

          k = 0.0000 0.4330 0.0000 (  1975 PWs)   bands (ev):

   -65.5050 -65.5050 -42.1781 -42.1781 -39.6795 -39.6795 -39.5215 -39.5215
   -17.8390 -17.8390 -17.5134 -17.5134 -10.7325 -10.7325  -9.8049  -9.8049
    -9.2290  -9.2290  -8.2544  -8.2544  -7.1377  -7.1377  -6.4427  -6.4427
    -6.2503  -6.2503  -3.1097  -3.1097  -2.8454  -2.8454  -1.6887  -1.6887
    -1.1665  -1.1665   2.1689   2.1689   2.7156   2.7156   3.1565   3.1565
     4.9251   4.9251   5.4772   5.4772   6.7219   6.7219   7.8961   7.8961
     8.1939   8.1939   9.6210   9.6210   9.9945   9.9945  10.8103  10.8103
    10.8625  10.8625  12.5479  12.5479  13.2275  13.2275  13.5959  13.5959
    14.9978  14.9978  15.4996  15.4996  15.9198  15.9198  16.8873  16.8873
    17.0973  17.0973  18.0993  18.0993  19.4233  19.4233  19.8032  19.8032
    20.1530  20.1530

          k = 0.0000 0.5774 0.0000 (  1964 PWs)   bands (ev):

   -65.4774 -65.4774 -42.1939 -42.1939 -39.7111 -39.7111 -39.5226 -39.5226
   -17.4927 -17.4927 -17.3728 -17.3728 -11.0718 -11.0718 -10.1763 -10.1763
    -9.3962  -9.3962  -8.4352  -8.4352  -7.2874  -7.2874  -6.2298  -6.2298
    -5.9592  -5.9592  -3.0341  -3.0341  -2.5196  -2.5196  -1.4417  -1.4417
    -1.0502  -1.0502   1.1402   1.1402   2.5910   2.5910   3.2297   3.2297
     4.4459   4.4459   4.9961   4.9961   6.0263   6.0263   8.3321   8.3321
     9.0108   9.0108  10.3993  10.3993  10.4137  10.4137  11.8586  11.8586
    12.0882  12.0882  12.7977  12.7977  13.4239  13.4239  14.1131  14.1131
    14.6020  14.6020  15.0137  15.0137  15.6653  15.6653  16.4037  16.4037
    16.4256  16.4256  18.8936  18.8936  18.9528  18.9528  19.5258  19.5258
    19.8036  19.8036

          k = 0.0000 0.7217 0.0000 (  1975 PWs)   bands (ev):

   -65.5050 -65.5050 -42.1781 -42.1781 -39.6795 -39.6795 -39.5215 -39.5215
   -17.8390 -17.8390 -17.5134 -17.5134 -10.7325 -10.7325  -9.8049  -9.8049
    -9.2290  -9.2290  -8.2544  -8.2544  -7.1377  -7.1377  -6.4427  -6.4427
    -6.2503  -6.2503  -3.1097  -3.1097  -2.8454  -2.8454  -1.6887  -1.6887
    -1.1665  -1.1665   2.1689   2.1689   2.7156   2.7156   3.1565   3.1565
     4.9251   4.9251   5.4772   5.4772   6.7219   6.7219   7.8961   7.8961
     8.1939   8.1939   9.6210   9.6210   9.9945   9.9945  10.8103  10.8103
    10.8625  10.8625  12.5479  12.5479  13.2275  13.2275  13.5959  13.5959
    14.9978  14.9978  15.4996  15.4996  15.9198  15.9198  16.8873  16.8873
    17.0973  17.0973  18.0993  18.0993  19.4233  19.4233  19.8032  19.8032
    20.1530  20.1530

          k = 0.0000 0.8660 0.0000 (  1947 PWs)   bands (ev):

   -65.4533 -65.4533 -42.1313 -42.1313 -39.5992 -39.5992 -39.4885 -39.4885
   -18.5456 -18.5456 -17.8149 -17.8149 -10.2738 -10.2738  -9.0400  -9.0400
    -8.9139  -8.9139  -7.7430  -7.7430  -7.0052  -7.0052  -6.6818  -6.6818
    -6.0905  -6.0905  -3.1595  -3.1595  -2.9585  -2.9585  -2.3563  -2.3563
    -1.5448  -1.5448   2.9881   2.9881   3.6595   3.6595   4.1727   4.1727
     5.1058   5.1058   5.4431   5.4431   7.0364   7.0364   7.0740   7.0740
     7.6959   7.6959   8.3431   8.3431   9.0109   9.0109   9.1683   9.1683
     9.7448   9.7448  11.9473  11.9473  13.6185  13.6185  14.6790  14.6790
    15.0523  15.0523  15.4636  15.4636  16.4113  16.4113  17.1731  17.1731
    17.2271  17.2271  17.4056  17.4056  18.1199  18.1199  18.8718  18.8718
    19.8157  19.8157

          k = 0.0000 1.0104 0.0000 (  1957 PWs)   bands (ev):

   -65.4771 -65.4771 -42.0942 -42.0942 -39.5648 -39.5648 -39.4240 -39.4240
   -19.1469 -19.1469 -18.0776 -18.0776 -10.6255 -10.6255  -8.3118  -8.3118
    -7.9118  -7.9118  -7.5909  -7.5909  -7.0902  -7.0902  -6.3730  -6.3730
    -5.5213  -5.5213  -2.8384  -2.8384  -2.7283  -2.7283  -2.5709  -2.5709
    -2.1656  -2.1656   2.0794   2.0794   4.0600   4.0600   4.5426   4.5426
     4.9771   4.9771   5.1945   5.1945   6.2732   6.2732   6.3522   6.3522
     7.4170   7.4170   7.6412   7.6412   9.5740   9.5740  10.3588  10.3588
    10.5631  10.5631  11.1717  11.1717  12.1026  12.1026  12.7391  12.7391
    14.7657  14.7657  14.9017  14.9017  16.0907  16.0907  16.2725  16.2725
    17.8848  17.8848  17.9783  17.9783  18.8979  18.8979  19.2878  19.2878
    20.2208  20.2208

          k = 0.1250 0.0722 0.0000 (  1957 PWs)   bands (ev):

   -65.4771 -65.4771 -42.0942 -42.0942 -39.5648 -39.5648 -39.4240 -39.4240
   -19.1469 -19.1469 -18.0776 -18.0776 -10.6255 -10.6255  -8.3118  -8.3118
    -7.9118  -7.9118  -7.5909  -7.5909  -7.0901  -7.0901  -6.3730  -6.3730
    -5.5213  -5.5213  -2.8384  -2.8384  -2.7283  -2.7283  -2.5709  -2.5709
    -2.1656  -2.1656   2.0794   2.0794   4.0600   4.0600   4.5426   4.5426
     4.9771   4.9771   5.1945   5.1945   6.2732   6.2732   6.3522   6.3522
     7.4170   7.4170   7.6413   7.6413   9.5740   9.5740  10.3588  10.3588
    10.5631  10.5631  11.1718  11.1718  12.1026  12.1026  12.7391  12.7391
    14.7657  14.7657  14.9017  14.9017  16.0907  16.0907  16.2725  16.2725
    17.8848  17.8848  17.9783  17.9783  18.8979  18.8979  19.2878  19.2878
    20.2208  20.2208

          k = 0.1250 0.2165 0.0000 (  1947 PWs)   bands (ev):

   -65.4537 -65.4537 -42.1213 -42.1179 -39.5838 -39.5823 -39.4782 -39.4717
   -18.7357 -18.7288 -17.8951 -17.8945 -10.2880 -10.2753  -8.8760  -8.8721
    -8.4950  -8.4833  -7.9503  -7.9454  -7.2807  -7.2348  -6.2708  -6.2357
    -5.9017  -5.8752  -3.2564  -3.2304  -2.8503  -2.8454  -2.8025  -2.7371
    -1.5735  -1.5274   3.3563   3.3577   4.2477   4.2673   4.5403   4.5432
     4.8075   4.8612   5.1266   5.1293   6.4169   6.4303   6.4483   6.4800
     7.6463   7.6488   7.8905   7.9319   8.6408   8.6709   9.5705   9.5713
    10.5141  10.5814  11.4134  11.4365  13.3327  13.3372  14.5687  14.5690
    15.8567  15.8703  15.8713  15.8922  16.1486  16.1699  16.3447  16.3486
    17.0845  17.1102  17.8029  17.8606  17.9271  17.9274  18.7432  18.7593
    18.8654  18.8721

          k = 0.1250 0.3608 0.0000 (  1938 PWs)   bands (ev):

   -65.4304 -65.4304 -42.1623 -42.1538 -39.6394 -39.6328 -39.5207 -39.5151
   -18.0743 -18.0549 -17.6022 -17.6006 -10.3758 -10.3590  -9.4408  -9.4259
    -9.0496  -9.0397  -8.5067  -8.4917  -7.2624  -7.1872  -6.6632  -6.6383
    -6.1623  -6.0805  -3.3450  -3.2814  -2.7914  -2.7779  -2.3335  -2.2929
    -1.0490  -1.0259   3.1736   3.1959   3.6362   3.6392   3.8307   3.8713
     5.2149   5.2276   5.4558   5.4575   6.3481   6.4227   7.2401   7.2471
     7.3688   7.3774   8.2945   8.2952   9.5251   9.5769   9.8831   9.8871
    10.8880  10.9102  12.5264  12.5420  14.1867  14.2074  14.6574  14.6591
    14.9413  14.9496  15.6405  15.6651  15.6754  15.6805  17.0904  17.0917
    17.2635  17.2678  18.0893  18.1126  18.4238  18.4252  19.3968  19.4295
    19.8374  19.8414

          k = 0.1250 0.5052 0.0000 (  1945 PWs)   bands (ev):

   -65.4394 -65.4394 -42.1950 -42.1829 -39.6998 -39.6845 -39.5349 -39.5328
   -17.5224 -17.4900 -17.3619 -17.3594 -10.7858 -10.7721 -10.2195 -10.2117
    -9.2529  -9.2432  -8.5127  -8.4999  -7.2646  -7.2022  -7.1546  -7.1518
    -5.8348  -5.7331  -3.0556  -3.0253  -2.5357  -2.4341  -1.7394  -1.7378
    -1.0438  -1.0273   1.6436   1.6731   3.4794   3.4857   3.8435   3.8514
     4.7393   4.7591   4.8654   4.8960   5.8432   5.8596   7.9870   7.9896
     8.6511   8.6646   9.4611   9.4727  10.3286  10.3309  10.4991  10.5286
    11.9626  11.9706  12.8830  12.8881  13.4553  13.4850  14.0613  14.0633
    14.7432  14.7677  15.5845  15.6134  15.9342  15.9439  16.9811  16.9823
    17.3662  17.4135  18.2447  18.2591  18.3915  18.3967  18.9533  18.9567
    19.8785  19.8791

          k = 0.1250 0.6495 0.0000 (  1945 PWs)   bands (ev):

   -65.4394 -65.4394 -42.1950 -42.1829 -39.6998 -39.6845 -39.5349 -39.5328
   -17.5224 -17.4900 -17.3619 -17.3594 -10.7858 -10.7721 -10.2195 -10.2117
    -9.2529  -9.2432  -8.5127  -8.4999  -7.2646  -7.2022  -7.1546  -7.1518
    -5.8348  -5.7331  -3.0556  -3.0253  -2.5356  -2.4341  -1.7394  -1.7378
    -1.0438  -1.0273   1.6436   1.6731   3.4794   3.4857   3.8435   3.8514
     4.7393   4.7591   4.8654   4.8961   5.8432   5.8596   7.9870   7.9896
     8.6511   8.6646   9.4611   9.4727  10.3286  10.3309  10.4991  10.5286
    11.9626  11.9706  12.8830  12.8881  13.4553  13.4851  14.0614  14.0633
    14.7432  14.7677  15.5845  15.6134  15.9343  15.9439  16.9811  16.9823
    17.3662  17.4135  18.2447  18.2591  18.3915  18.3967  18.9533  18.9567
    19.8785  19.8791

          k = 0.1250 0.7939 0.0000 (  1938 PWs)   bands (ev):

   -65.4304 -65.4304 -42.1623 -42.1538 -39.6394 -39.6328 -39.5207 -39.5151
   -18.0743 -18.0549 -17.6022 -17.6006 -10.3758 -10.3590  -9.4408  -9.4259
    -9.0496  -9.0397  -8.5067  -8.4917  -7.2624  -7.1872  -6.6632  -6.6383
    -6.1623  -6.0805  -3.3450  -3.2814  -2.7913  -2.7779  -2.3335  -2.2929
    -1.0491  -1.0259   3.1736   3.1959   3.6362   3.6392   3.8307   3.8713
     5.2149   5.2276   5.4558   5.4575   6.3481   6.4227   7.2401   7.2471
     7.3688   7.3774   8.2945   8.2953   9.5251   9.5769   9.8831   9.8871
    10.8879  10.9102  12.5264  12.5420  14.1867  14.2074  14.6574  14.6591
    14.9413  14.9496  15.6405  15.6652  15.6754  15.6805  17.0904  17.0917
    17.2635  17.2678  18.0893  18.1126  18.4238  18.4252  19.3968  19.4295
    19.8374  19.8414

          k = 0.1250 0.9382 0.0000 (  1947 PWs)   bands (ev):

   -65.4537 -65.4537 -42.1213 -42.1179 -39.5838 -39.5823 -39.4782 -39.4717
   -18.7357 -18.7288 -17.8951 -17.8945 -10.2880 -10.2753  -8.8760  -8.8722
    -8.4950  -8.4833  -7.9504  -7.9454  -7.2807  -7.2348  -6.2708  -6.2357
    -5.9017  -5.8752  -3.2564  -3.2304  -2.8503  -2.8454  -2.8025  -2.7371
    -1.5735  -1.5274   3.3563   3.3577   4.2477   4.2673   4.5403   4.5432
     4.8075   4.8612   5.1266   5.1293   6.4169   6.4303   6.4483   6.4800
     7.6463   7.6488   7.8905   7.9319   8.6408   8.6709   9.5705   9.5713
    10.5141  10.5814  11.4134  11.4365  13.3327  13.3372  14.5687  14.5690
    15.8567  15.8703  15.8713  15.8923  16.1486  16.1699  16.3447  16.3486
    17.0845  17.1102  17.8029  17.8606  17.9271  17.9274  18.7432  18.7593
    18.8654  18.8721

          k = 0.1250 1.0825 0.0000 (  1957 PWs)   bands (ev):

   -65.4771 -65.4771 -42.0942 -42.0942 -39.5648 -39.5648 -39.4240 -39.4240
   -19.1469 -19.1469 -18.0776 -18.0776 -10.6255 -10.6255  -8.3118  -8.3118
    -7.9117  -7.9117  -7.5909  -7.5909  -7.0902  -7.0902  -6.3730  -6.3730
    -5.5213  -5.5213  -2.8384  -2.8384  -2.7283  -2.7283  -2.5709  -2.5709
    -2.1656  -2.1656   2.0794   2.0794   4.0600   4.0600   4.5426   4.5426
     4.9771   4.9771   5.1945   5.1945   6.2732   6.2732   6.3522   6.3522
     7.4170   7.4170   7.6412   7.6412   9.5740   9.5740  10.3587  10.3587
    10.5631  10.5631  11.1718  11.1718  12.1026  12.1026  12.7391  12.7391
    14.7657  14.7657  14.9017  14.9017  16.0907  16.0907  16.2725  16.2725
    17.8848  17.8848  17.9783  17.9783  18.8978  18.8978  19.2878  19.2878
    20.2208  20.2208

          k = 0.2500 0.1443 0.0000 (  1947 PWs)   bands (ev):

   -65.4533 -65.4533 -42.1313 -42.1313 -39.5992 -39.5992 -39.4885 -39.4885
   -18.5456 -18.5456 -17.8149 -17.8149 -10.2738 -10.2738  -9.0400  -9.0400
    -8.9139  -8.9139  -7.7429  -7.7429  -7.0052  -7.0052  -6.6818  -6.6818
    -6.0905  -6.0905  -3.1595  -3.1595  -2.9585  -2.9585  -2.3563  -2.3563
    -1.5448  -1.5448   2.9881   2.9881   3.6595   3.6595   4.1727   4.1727
     5.1058   5.1058   5.4431   5.4431   7.0364   7.0364   7.0740   7.0740
     7.6959   7.6959   8.3431   8.3431   9.0108   9.0108   9.1683   9.1683
     9.7448   9.7448  11.9473  11.9473  13.6185  13.6185  14.6790  14.6790
    15.0523  15.0523  15.4636  15.4636  16.4113  16.4113  17.1731  17.1731
    17.2271  17.2271  17.4056  17.4056  18.1199  18.1199  18.8717  18.8717
    19.8157  19.8157

          k = 0.2500 0.2887 0.0000 (  1938 PWs)   bands (ev):

   -65.4304 -65.4304 -42.1623 -42.1538 -39.6394 -39.6328 -39.5207 -39.5151
   -18.0743 -18.0549 -17.6022 -17.6006 -10.3758 -10.3590  -9.4408  -9.4259
    -9.0496  -9.0397  -8.5067  -8.4917  -7.2624  -7.1872  -6.6632  -6.6383
    -6.1623  -6.0805  -3.3450  -3.2814  -2.7914  -2.7779  -2.3335  -2.2929
    -1.0490  -1.0259   3.1736   3.1959   3.6362   3.6392   3.8307   3.8713
     5.2149   5.2276   5.4558   5.4575   6.3481   6.4227   7.2401   7.2471
     7.3688   7.3774   8.2945   8.2952   9.5251   9.5769   9.8831   9.8871
    10.8880  10.9102  12.5264  12.5420  14.1867  14.2074  14.6574  14.6591
    14.9413  14.9496  15.6405  15.6651  15.6754  15.6805  17.0904  17.0917
    17.2635  17.2678  18.0893  18.1126  18.4238  18.4252  19.3968  19.4295
    19.8374  19.8414

          k = 0.2500 0.4330 0.0000 (  1933 PWs)   bands (ev):

   -65.4173 -65.4173 -42.1936 -42.1765 -39.6805 -39.6557 -39.5545 -39.5543
   -17.5430 -17.4977 -17.3509 -17.3473 -10.4142 -10.4111 -10.2567 -10.2445
    -8.8800  -8.8748  -8.6140  -8.5948  -8.2540  -8.1976  -7.0258  -7.0152
    -5.8667  -5.7646  -3.1228  -3.1152  -2.4591  -2.3580  -2.2537  -2.2433
    -0.7098  -0.6715   2.4511   2.4974   3.4302   3.4874   4.2173   4.2228
     5.4655   5.4881   5.5617   5.5814   6.3144   6.3613   7.3151   7.3204
     7.4823   7.4965   8.6227   8.6336   9.0512   9.0589  10.3482  10.3835
    11.7029  11.7313  13.3117  13.3283  13.4099  13.4125  14.8715  14.9047
    14.9056  14.9403  15.6915  15.6927  16.3148  16.3750  16.8499  16.8658
    17.0501  17.0631  17.9298  17.9355  18.8219  18.8225  19.4681  19.4783
    19.7858  19.7875

          k = 0.2500 0.5773 0.0000 (  1951 PWs)   bands (ev):

   -65.4520 -65.4520 -42.2101 -42.1893 -39.7027 -39.6653 -39.5817 -39.5741
   -17.3013 -17.2431 -17.2326 -17.2289 -10.6531 -10.6442 -10.2665 -10.2319
    -9.2143  -9.2100  -8.5521  -8.5130  -8.3778  -8.3361  -7.4383  -7.4309
    -5.5188  -5.3960  -3.3755  -3.3619  -2.2540  -2.2313  -1.9767  -1.8498
    -0.5731  -0.5037   1.8098   1.8819   3.0336   3.1006   4.6183   4.6254
     5.4929   5.5675   5.7574   5.7809   6.6462   6.6580   7.2694   7.2927
     8.0632   8.0724   8.3921   8.3922   9.2607   9.2656  10.9512  10.9988
    11.6143  11.6227  13.0157  13.0209  13.0916  13.0968  13.6506  13.8001
    14.0848  14.0858  15.4929  15.5013  15.6591  15.6885  17.5121  17.5185
    18.6505  18.6516  18.9534  18.9582  19.2479  19.2598  19.9192  19.9337
    20.3962  20.4041

          k = 0.2500 0.7217 0.0000 (  1933 PWs)   bands (ev):

   -65.4173 -65.4173 -42.1936 -42.1765 -39.6805 -39.6557 -39.5545 -39.5543
   -17.5430 -17.4977 -17.3509 -17.3473 -10.4142 -10.4111 -10.2567 -10.2445
    -8.8800  -8.8748  -8.6140  -8.5948  -8.2540  -8.1976  -7.0258  -7.0152
    -5.8667  -5.7646  -3.1228  -3.1152  -2.4591  -2.3579  -2.2537  -2.2433
    -0.7098  -0.6716   2.4511   2.4974   3.4302   3.4874   4.2172   4.2228
     5.4655   5.4881   5.5617   5.5814   6.3144   6.3613   7.3151   7.3205
     7.4823   7.4965   8.6227   8.6336   9.0512   9.0589  10.3482  10.3835
    11.7029  11.7313  13.3117  13.3283  13.4099  13.4125  14.8715  14.9047
    14.9056  14.9403  15.6915  15.6928  16.3148  16.3749  16.8500  16.8658
    17.0502  17.0632  17.9298  17.9355  18.8219  18.8225  19.4681  19.4783
    19.7858  19.7875

          k = 0.2500 0.8660 0.0000 (  1938 PWs)   bands (ev):

   -65.4304 -65.4304 -42.1623 -42.1538 -39.6394 -39.6328 -39.5207 -39.5151
   -18.0743 -18.0549 -17.6022 -17.6006 -10.3758 -10.3590  -9.4408  -9.4259
    -9.0496  -9.0397  -8.5067  -8.4917  -7.2624  -7.1872  -6.6632  -6.6383
    -6.1623  -6.0805  -3.3450  -3.2814  -2.7913  -2.7779  -2.3336  -2.2929
    -1.0490  -1.0259   3.1736   3.1959   3.6362   3.6392   3.8307   3.8713
     5.2149   5.2276   5.4558   5.4575   6.3481   6.4227   7.2401   7.2471
     7.3688   7.3774   8.2945   8.2953   9.5251   9.5769   9.8831   9.8871
    10.8879  10.9102  12.5264  12.5420  14.1867  14.2074  14.6574  14.6591
    14.9413  14.9496  15.6405  15.6652  15.6754  15.6805  17.0904  17.0917
    17.2635  17.2678  18.0893  18.1126  18.4238  18.4252  19.3968  19.4295
    19.8374  19.8414

          k = 0.2500 1.0104 0.0000 (  1947 PWs)   bands (ev):

   -65.4533 -65.4533 -42.1313 -42.1313 -39.5992 -39.5992 -39.4885 -39.4885
   -18.5456 -18.5456 -17.8149 -17.8149 -10.2738 -10.2738  -9.0400  -9.0400
    -8.9139  -8.9139  -7.7430  -7.7430  -7.0052  -7.0052  -6.6818  -6.6818
    -6.0905  -6.0905  -3.1595  -3.1595  -2.9585  -2.9585  -2.3563  -2.3563
    -1.5448  -1.5448   2.9881   2.9881   3.6595   3.6595   4.1727   4.1727
     5.1058   5.1058   5.4431   5.4431   7.0364   7.0364   7.0740   7.0740
     7.6959   7.6959   8.3431   8.3431   9.0109   9.0109   9.1683   9.1683
     9.7449   9.7449  11.9473  11.9473  13.6185  13.6185  14.6790  14.6790
    15.0523  15.0523  15.4636  15.4636  16.4113  16.4113  17.1731  17.1731
    17.2271  17.2271  17.4056  17.4056  18.1199  18.1199  18.8718  18.8718
    19.8157  19.8157

          k = 0.2500 1.1547 0.0000 (  1947 PWs)   bands (ev):

   -65.4537 -65.4537 -42.1213 -42.1179 -39.5838 -39.5823 -39.4782 -39.4717
   -18.7357 -18.7288 -17.8951 -17.8945 -10.2880 -10.2753  -8.8760  -8.8722
    -8.4950  -8.4833  -7.9504  -7.9454  -7.2807  -7.2348  -6.2708  -6.2357
    -5.9017  -5.8752  -3.2564  -3.2304  -2.8503  -2.8454  -2.8025  -2.7371
    -1.5735  -1.5274   3.3563   3.3577   4.2477   4.2673   4.5403   4.5432
     4.8075   4.8612   5.1266   5.1293   6.4169   6.4303   6.4483   6.4800
     7.6463   7.6488   7.8905   7.9319   8.6408   8.6709   9.5705   9.5713
    10.5141  10.5814  11.4135  11.4365  13.3327  13.3372  14.5687  14.5690
    15.8567  15.8703  15.8713  15.8922  16.1486  16.1699  16.3447  16.3486
    17.0845  17.1102  17.8029  17.8606  17.9271  17.9274  18.7432  18.7593
    18.8654  18.8721

          k = 0.3750 0.2165 0.0000 (  1975 PWs)   bands (ev):

   -65.5050 -65.5050 -42.1781 -42.1781 -39.6795 -39.6795 -39.5215 -39.5215
   -17.8390 -17.8390 -17.5134 -17.5134 -10.7325 -10.7325  -9.8049  -9.8049
    -9.2290  -9.2290  -8.2544  -8.2544  -7.1377  -7.1377  -6.4427  -6.4427
    -6.2503  -6.2503  -3.1097  -3.1097  -2.8454  -2.8454  -1.6887  -1.6887
    -1.1665  -1.1665   2.1689   2.1689   2.7156   2.7156   3.1565   3.1565
     4.9251   4.9251   5.4772   5.4772   6.7219   6.7219   7.8961   7.8961
     8.1939   8.1939   9.6210   9.6210   9.9945   9.9945  10.8103  10.8103
    10.8625  10.8625  12.5479  12.5479  13.2275  13.2275  13.5959  13.5959
    14.9978  14.9978  15.4996  15.4996  15.9198  15.9198  16.8873  16.8873
    17.0973  17.0973  18.0993  18.0993  19.4233  19.4233  19.8032  19.8032
    20.1530  20.1530

          k = 0.3750 0.3608 0.0000 (  1945 PWs)   bands (ev):

   -65.4394 -65.4394 -42.1950 -42.1829 -39.6998 -39.6845 -39.5349 -39.5328
   -17.5224 -17.4900 -17.3619 -17.3594 -10.7858 -10.7721 -10.2195 -10.2117
    -9.2529  -9.2432  -8.5127  -8.4999  -7.2646  -7.2022  -7.1546  -7.1518
    -5.8348  -5.7331  -3.0556  -3.0253  -2.5357  -2.4341  -1.7394  -1.7378
    -1.0438  -1.0273   1.6436   1.6731   3.4794   3.4857   3.8435   3.8514
     4.7393   4.7591   4.8654   4.8960   5.8432   5.8596   7.9870   7.9896
     8.6511   8.6646   9.4611   9.4727  10.3286  10.3309  10.4991  10.5286
    11.9626  11.9706  12.8830  12.8881  13.4553  13.4850  14.0613  14.0633
    14.7432  14.7677  15.5845  15.6134  15.9342  15.9439  16.9811  16.9823
    17.3662  17.4135  18.2447  18.2591  18.3915  18.3967  18.9533  18.9567
    19.8785  19.8791

          k = 0.3750 0.5052 0.0000 (  1951 PWs)   bands (ev):

   -65.4520 -65.4520 -42.2101 -42.1893 -39.7027 -39.6653 -39.5817 -39.5741
   -17.3013 -17.2431 -17.2326 -17.2289 -10.6531 -10.6441 -10.2665 -10.2319
    -9.2143  -9.2100  -8.5521  -8.5130  -8.3778  -8.3361  -7.4383  -7.4309
    -5.5188  -5.3960  -3.3755  -3.3619  -2.2540  -2.2313  -1.9767  -1.8498
    -0.5731  -0.5037   1.8098   1.8819   3.0336   3.1006   4.6183   4.6254
     5.4929   5.5675   5.7574   5.7809   6.6463   6.6581   7.2694   7.2927
     8.0632   8.0724   8.3921   8.3922   9.2607   9.2656  10.9512  10.9988
    11.6143  11.6227  13.0157  13.0209  13.0916  13.0968  13.6506  13.8001
    14.0848  14.0858  15.4929  15.5013  15.6591  15.6885  17.5121  17.5185
    18.6505  18.6516  18.9534  18.9582  19.2479  19.2598  19.9192  19.9337
    20.3962  20.4041

          k = 0.3750 0.6495 0.0000 (  1951 PWs)   bands (ev):

   -65.4520 -65.4520 -42.2101 -42.1893 -39.7027 -39.6653 -39.5817 -39.5741
   -17.3013 -17.2431 -17.2326 -17.2289 -10.6531 -10.6442 -10.2665 -10.2319
    -9.2143  -9.2100  -8.5521  -8.5130  -8.3778  -8.3361  -7.4383  -7.4309
    -5.5188  -5.3960  -3.3755  -3.3619  -2.2540  -2.2313  -1.9767  -1.8498
    -0.5731  -0.5037   1.8098   1.8819   3.0336   3.1006   4.6183   4.6254
     5.4929   5.5675   5.7574   5.7809   6.6462   6.6580   7.2694   7.2927
     8.0632   8.0724   8.3921   8.3922   9.2607   9.2656  10.9512  10.9988
    11.6143  11.6227  13.0157  13.0209  13.0916  13.0968  13.6506  13.8001
    14.0848  14.0858  15.4929  15.5013  15.6591  15.6885  17.5121  17.5185
    18.6505  18.6516  18.9534  18.9582  19.2479  19.2598  19.9192  19.9337
    20.3962  20.4041

          k = 0.3750 0.7939 0.0000 (  1945 PWs)   bands (ev):

   -65.4394 -65.4394 -42.1950 -42.1829 -39.6998 -39.6845 -39.5349 -39.5328
   -17.5224 -17.4900 -17.3619 -17.3594 -10.7858 -10.7721 -10.2195 -10.2117
    -9.2529  -9.2432  -8.5127  -8.4999  -7.2646  -7.2022  -7.1546  -7.1518
    -5.8348  -5.7331  -3.0556  -3.0253  -2.5356  -2.4341  -1.7394  -1.7378
    -1.0438  -1.0274   1.6436   1.6731   3.4794   3.4857   3.8435   3.8514
     4.7393   4.7591   4.8654   4.8960   5.8432   5.8596   7.9870   7.9896
     8.6511   8.6646   9.4611   9.4727  10.3286  10.3310  10.4991  10.5286
    11.9626  11.9706  12.8830  12.8881  13.4553  13.4850  14.0613  14.0633
    14.7432  14.7677  15.5845  15.6134  15.9343  15.9439  16.9811  16.9823
    17.3662  17.4135  18.2447  18.2591  18.3915  18.3967  18.9533  18.9567
    19.8785  19.8791

          k = 0.3750 0.9382 0.0000 (  1975 PWs)   bands (ev):

   -65.5050 -65.5050 -42.1781 -42.1781 -39.6795 -39.6795 -39.5215 -39.5215
   -17.8390 -17.8390 -17.5134 -17.5134 -10.7325 -10.7325  -9.8049  -9.8049
    -9.2290  -9.2290  -8.2544  -8.2544  -7.1377  -7.1377  -6.4427  -6.4427
    -6.2503  -6.2503  -3.1097  -3.1097  -2.8454  -2.8454  -1.6887  -1.6887
    -1.1665  -1.1665   2.1689   2.1689   2.7156   2.7156   3.1564   3.1564
     4.9251   4.9251   5.4772   5.4772   6.7219   6.7219   7.8961   7.8961
     8.1939   8.1939   9.6210   9.6210   9.9945   9.9945  10.8103  10.8103
    10.8625  10.8625  12.5479  12.5479  13.2275  13.2275  13.5959  13.5959
    14.9978  14.9978  15.4996  15.4996  15.9198  15.9198  16.8873  16.8873
    17.0973  17.0973  18.0993  18.0993  19.4233  19.4233  19.8031  19.8031
    20.1530  20.1530

          k = 0.3750 1.0825 0.0000 (  1938 PWs)   bands (ev):

   -65.4304 -65.4304 -42.1623 -42.1538 -39.6394 -39.6328 -39.5207 -39.5151
   -18.0743 -18.0549 -17.6022 -17.6006 -10.3758 -10.3590  -9.4408  -9.4259
    -9.0496  -9.0397  -8.5067  -8.4917  -7.2624  -7.1872  -6.6632  -6.6383
    -6.1623  -6.0805  -3.3450  -3.2814  -2.7914  -2.7779  -2.3335  -2.2929
    -1.0491  -1.0259   3.1736   3.1959   3.6362   3.6392   3.8307   3.8713
     5.2149   5.2276   5.4558   5.4575   6.3481   6.4227   7.2401   7.2471
     7.3688   7.3774   8.2945   8.2953   9.5251   9.5769   9.8831   9.8871
    10.8879  10.9102  12.5264  12.5420  14.1867  14.2074  14.6574  14.6591
    14.9413  14.9496  15.6405  15.6651  15.6754  15.6805  17.0904  17.0917
    17.2635  17.2678  18.0893  18.1126  18.4238  18.4252  19.3968  19.4295
    19.8374  19.8414

          k = 0.3750 1.2269 0.0000 (  1938 PWs)   bands (ev):

   -65.4304 -65.4304 -42.1623 -42.1538 -39.6394 -39.6328 -39.5207 -39.5151
   -18.0743 -18.0549 -17.6022 -17.6006 -10.3758 -10.3590  -9.4408  -9.4259
    -9.0496  -9.0397  -8.5067  -8.4917  -7.2624  -7.1872  -6.6632  -6.6383
    -6.1623  -6.0805  -3.3450  -3.2814  -2.7913  -2.7779  -2.3335  -2.2929
    -1.0491  -1.0259   3.1736   3.1959   3.6362   3.6392   3.8307   3.8713
     5.2149   5.2276   5.4558   5.4575   6.3481   6.4227   7.2401   7.2471
     7.3688   7.3774   8.2945   8.2953   9.5251   9.5769   9.8831   9.8871
    10.8879  10.9102  12.5264  12.5420  14.1867  14.2074  14.6574  14.6591
    14.9413  14.9496  15.6405  15.6652  15.6754  15.6805  17.0904  17.0917
    17.2635  17.2678  18.0893  18.1126  18.4238  18.4252  19.3968  19.4295
    19.8374  19.8414

          k = 0.5000 0.2887 0.0000 (  1964 PWs)   bands (ev):

   -65.4774 -65.4774 -42.1939 -42.1939 -39.7111 -39.7111 -39.5226 -39.5226
   -17.4927 -17.4927 -17.3728 -17.3728 -11.0718 -11.0718 -10.1763 -10.1763
    -9.3962  -9.3962  -8.4352  -8.4352  -7.2874  -7.2874  -6.2298  -6.2298
    -5.9592  -5.9592  -3.0341  -3.0341  -2.5196  -2.5196  -1.4417  -1.4417
    -1.0502  -1.0502   1.1402   1.1402   2.5910   2.5910   3.2297   3.2297
     4.4459   4.4459   4.9961   4.9961   6.0263   6.0263   8.3321   8.3321
     9.0108   9.0108  10.3993  10.3993  10.4137  10.4137  11.8586  11.8586
    12.0882  12.0882  12.7977  12.7977  13.4239  13.4239  14.1131  14.1131
    14.6020  14.6020  15.0137  15.0137  15.6654  15.6654  16.4037  16.4037
    16.4256  16.4256  18.8936  18.8936  18.9528  18.9528  19.5258  19.5258
    19.8036  19.8036

          k = 0.5000 0.4330 0.0000 (  1945 PWs)   bands (ev):

   -65.4394 -65.4394 -42.1950 -42.1829 -39.6998 -39.6845 -39.5349 -39.5328
   -17.5224 -17.4900 -17.3619 -17.3594 -10.7858 -10.7721 -10.2195 -10.2117
    -9.2529  -9.2432  -8.5127  -8.4999  -7.2646  -7.2022  -7.1546  -7.1518
    -5.8348  -5.7331  -3.0556  -3.0253  -2.5357  -2.4341  -1.7394  -1.7377
    -1.0438  -1.0273   1.6436   1.6731   3.4794   3.4857   3.8435   3.8514
     4.7393   4.7591   4.8654   4.8961   5.8432   5.8596   7.9870   7.9896
     8.6511   8.6646   9.4611   9.4727  10.3286  10.3309  10.4991  10.5286
    11.9626  11.9706  12.8830  12.8881  13.4553  13.4851  14.0613  14.0633
    14.7432  14.7677  15.5845  15.6134  15.9343  15.9439  16.9811  16.9823
    17.3662  17.4135  18.2447  18.2591  18.3916  18.3967  18.9533  18.9567
    19.8785  19.8791

          k = 0.5000 0.5773 0.0000 (  1933 PWs)   bands (ev):

   -65.4173 -65.4173 -42.1936 -42.1765 -39.6805 -39.6557 -39.5545 -39.5543
   -17.5430 -17.4977 -17.3509 -17.3473 -10.4142 -10.4111 -10.2567 -10.2445
    -8.8800  -8.8748  -8.6140  -8.5948  -8.2540  -8.1976  -7.0258  -7.0152
    -5.8667  -5.7646  -3.1228  -3.1152  -2.4591  -2.3579  -2.2537  -2.2433
    -0.7098  -0.6716   2.4511   2.4974   3.4302   3.4874   4.2172   4.2228
     5.4655   5.4881   5.5617   5.5814   6.3144   6.3613   7.3151   7.3204
     7.4823   7.4965   8.6227   8.6336   9.0512   9.0589  10.3482  10.3835
    11.7029  11.7313  13.3117  13.3283  13.4099  13.4125  14.8715  14.9047
    14.9056  14.9403  15.6915  15.6927  16.3148  16.3750  16.8499  16.8658
    17.0501  17.0631  17.9298  17.9355  18.8219  18.8225  19.4681  19.4783
    19.7858  19.7875

          k = 0.5000 0.7217 0.0000 (  1945 PWs)   bands (ev):

   -65.4394 -65.4394 -42.1950 -42.1829 -39.6998 -39.6845 -39.5349 -39.5328
   -17.5224 -17.4900 -17.3619 -17.3594 -10.7858 -10.7721 -10.2195 -10.2117
    -9.2529  -9.2432  -8.5127  -8.4999  -7.2646  -7.2022  -7.1546  -7.1518
    -5.8348  -5.7331  -3.0556  -3.0253  -2.5357  -2.4341  -1.7394  -1.7378
    -1.0438  -1.0274   1.6436   1.6731   3.4794   3.4857   3.8435   3.8514
     4.7393   4.7591   4.8654   4.8960   5.8432   5.8596   7.9870   7.9896
     8.6511   8.6646   9.4611   9.4727  10.3286  10.3310  10.4991  10.5286
    11.9626  11.9706  12.8830  12.8881  13.4553  13.4850  14.0613  14.0633
    14.7432  14.7677  15.5845  15.6134  15.9343  15.9439  16.9811  16.9823
    17.3662  17.4135  18.2447  18.2590  18.3915  18.3967  18.9533  18.9567
    19.8785  19.8791

          k = 0.5000 0.8660 0.0000 (  1964 PWs)   bands (ev):

   -65.4774 -65.4774 -42.1939 -42.1939 -39.7111 -39.7111 -39.5226 -39.5226
   -17.4927 -17.4927 -17.3728 -17.3728 -11.0718 -11.0718 -10.1763 -10.1763
    -9.3962  -9.3962  -8.4352  -8.4352  -7.2874  -7.2874  -6.2298  -6.2298
    -5.9592  -5.9592  -3.0341  -3.0341  -2.5196  -2.5196  -1.4417  -1.4417
    -1.0502  -1.0502   1.1402   1.1402   2.5910   2.5910   3.2297   3.2297
     4.4459   4.4459   4.9961   4.9961   6.0263   6.0263   8.3321   8.3321
     9.0108   9.0108  10.3993  10.3993  10.4137  10.4137  11.8586  11.8586
    12.0882  12.0882  12.7977  12.7977  13.4239  13.4239  14.1131  14.1131
    14.6020  14.6020  15.0137  15.0137  15.6653  15.6653  16.4037  16.4037
    16.4256  16.4256  18.8936  18.8936  18.9528  18.9528  19.5258  19.5258
    19.8036  19.8036

          k = 0.5000 1.0104 0.0000 (  1945 PWs)   bands (ev):

   -65.4394 -65.4394 -42.1950 -42.1829 -39.6998 -39.6845 -39.5349 -39.5328
   -17.5224 -17.4900 -17.3619 -17.3594 -10.7858 -10.7721 -10.2195 -10.2117
    -9.2529  -9.2432  -8.5127  -8.4999  -7.2646  -7.2022  -7.1546  -7.1518
    -5.8348  -5.7331  -3.0556  -3.0253  -2.5357  -2.4341  -1.7394  -1.7378
    -1.0438  -1.0274   1.6436   1.6731   3.4794   3.4857   3.8435   3.8514
     4.7393   4.7591   4.8654   4.8960   5.8432   5.8596   7.9870   7.9896
     8.6511   8.6646   9.4611   9.4727  10.3286  10.3310  10.4991  10.5286
    11.9626  11.9706  12.8830  12.8881  13.4553  13.4850  14.0613  14.0633
    14.7432  14.7677  15.5845  15.6134  15.9343  15.9439  16.9811  16.9823
    17.3662  17.4135  18.2447  18.2590  18.3915  18.3967  18.9533  18.9567
    19.8785  19.8791

          k = 0.5000 1.1547 0.0000 (  1933 PWs)   bands (ev):

   -65.4173 -65.4173 -42.1936 -42.1765 -39.6805 -39.6557 -39.5545 -39.5543
   -17.5430 -17.4977 -17.3509 -17.3473 -10.4142 -10.4111 -10.2567 -10.2445
    -8.8800  -8.8748  -8.6140  -8.5948  -8.2540  -8.1976  -7.0258  -7.0152
    -5.8667  -5.7646  -3.1228  -3.1152  -2.4591  -2.3579  -2.2537  -2.2433
    -0.7098  -0.6716   2.4511   2.4974   3.4302   3.4874   4.2172   4.2228
     5.4655   5.4881   5.5617   5.5814   6.3144   6.3613   7.3151   7.3204
     7.4823   7.4965   8.6227   8.6336   9.0512   9.0589  10.3482  10.3835
    11.7029  11.7313  13.3117  13.3283  13.4099  13.4125  14.8715  14.9047
    14.9056  14.9403  15.6915  15.6927  16.3148  16.3750  16.8499  16.8658
    17.0501  17.0631  17.9298  17.9355  18.8219  18.8225  19.4681  19.4783
    19.7858  19.7875

          k = 0.5000 1.2990 0.0000 (  1945 PWs)   bands (ev):

   -65.4394 -65.4394 -42.1950 -42.1829 -39.6998 -39.6845 -39.5349 -39.5328
   -17.5224 -17.4900 -17.3619 -17.3594 -10.7858 -10.7721 -10.2195 -10.2117
    -9.2529  -9.2432  -8.5127  -8.4999  -7.2646  -7.2022  -7.1546  -7.1518
    -5.8348  -5.7331  -3.0556  -3.0253  -2.5357  -2.4341  -1.7394  -1.7377
    -1.0438  -1.0273   1.6436   1.6731   3.4794   3.4857   3.8435   3.8514
     4.7393   4.7591   4.8654   4.8961   5.8432   5.8596   7.9870   7.9896
     8.6511   8.6646   9.4611   9.4727  10.3286  10.3309  10.4991  10.5286
    11.9626  11.9706  12.8830  12.8881  13.4553  13.4851  14.0613  14.0633
    14.7432  14.7677  15.5845  15.6134  15.9343  15.9439  16.9811  16.9823
    17.3662  17.4135  18.2447  18.2591  18.3916  18.3967  18.9533  18.9567
    19.8785  19.8791

          k = 0.6250 0.3608 0.0000 (  1975 PWs)   bands (ev):

   -65.5050 -65.5050 -42.1781 -42.1781 -39.6795 -39.6795 -39.5215 -39.5215
   -17.8390 -17.8390 -17.5134 -17.5134 -10.7325 -10.7325  -9.8049  -9.8049
    -9.2290  -9.2290  -8.2544  -8.2544  -7.1377  -7.1377  -6.4427  -6.4427
    -6.2503  -6.2503  -3.1097  -3.1097  -2.8454  -2.8454  -1.6887  -1.6887
    -1.1665  -1.1665   2.1689   2.1689   2.7156   2.7156   3.1565   3.1565
     4.9251   4.9251   5.4772   5.4772   6.7219   6.7219   7.8961   7.8961
     8.1939   8.1939   9.6210   9.6210   9.9945   9.9945  10.8103  10.8103
    10.8625  10.8625  12.5479  12.5479  13.2275  13.2275  13.5959  13.5959
    14.9978  14.9978  15.4996  15.4996  15.9198  15.9198  16.8873  16.8873
    17.0973  17.0973  18.0993  18.0993  19.4233  19.4233  19.8032  19.8032
    20.1530  20.1530

          k = 0.6250 0.5052 0.0000 (  1938 PWs)   bands (ev):

   -65.4304 -65.4304 -42.1623 -42.1538 -39.6394 -39.6328 -39.5207 -39.5151
   -18.0743 -18.0549 -17.6022 -17.6006 -10.3758 -10.3590  -9.4408  -9.4259
    -9.0496  -9.0397  -8.5067  -8.4917  -7.2624  -7.1872  -6.6632  -6.6383
    -6.1623  -6.0805  -3.3450  -3.2814  -2.7913  -2.7779  -2.3335  -2.2929
    -1.0491  -1.0259   3.1736   3.1959   3.6362   3.6392   3.8307   3.8713
     5.2149   5.2276   5.4558   5.4575   6.3481   6.4227   7.2401   7.2471
     7.3688   7.3774   8.2945   8.2953   9.5251   9.5769   9.8831   9.8871
    10.8879  10.9102  12.5264  12.5420  14.1867  14.2074  14.6574  14.6591
    14.9413  14.9496  15.6405  15.6652  15.6754  15.6805  17.0904  17.0917
    17.2635  17.2678  18.0893  18.1126  18.4238  18.4252  19.3968  19.4295
    19.8374  19.8414

          k = 0.6250 0.6495 0.0000 (  1938 PWs)   bands (ev):

   -65.4304 -65.4304 -42.1623 -42.1538 -39.6394 -39.6328 -39.5207 -39.5151
   -18.0743 -18.0549 -17.6022 -17.6006 -10.3758 -10.3590  -9.4408  -9.4259
    -9.0496  -9.0397  -8.5067  -8.4917  -7.2624  -7.1872  -6.6632  -6.6383
    -6.1623  -6.0805  -3.3450  -3.2814  -2.7914  -2.7779  -2.3335  -2.2929
    -1.0491  -1.0259   3.1736   3.1959   3.6362   3.6392   3.8307   3.8713
     5.2149   5.2276   5.4558   5.4575   6.3481   6.4227   7.2401   7.2471
     7.3688   7.3774   8.2945   8.2953   9.5251   9.5769   9.8831   9.8871
    10.8879  10.9102  12.5264  12.5420  14.1867  14.2074  14.6574  14.6591
    14.9413  14.9496  15.6405  15.6651  15.6754  15.6805  17.0904  17.0917
    17.2635  17.2678  18.0893  18.1126  18.4238  18.4252  19.3968  19.4295
    19.8374  19.8414

          k = 0.6250 0.7939 0.0000 (  1975 PWs)   bands (ev):

   -65.5050 -65.5050 -42.1781 -42.1781 -39.6795 -39.6795 -39.5215 -39.5215
   -17.8390 -17.8390 -17.5134 -17.5134 -10.7325 -10.7325  -9.8049  -9.8049
    -9.2290  -9.2290  -8.2544  -8.2544  -7.1377  -7.1377  -6.4427  -6.4427
    -6.2503  -6.2503  -3.1097  -3.1097  -2.8454  -2.8454  -1.6887  -1.6887
    -1.1665  -1.1665   2.1689   2.1689   2.7156   2.7156   3.1564   3.1564
     4.9251   4.9251   5.4772   5.4772   6.7219   6.7219   7.8961   7.8961
     8.1939   8.1939   9.6210   9.6210   9.9945   9.9945  10.8103  10.8103
    10.8625  10.8625  12.5479  12.5479  13.2275  13.2275  13.5959  13.5959
    14.9978  14.9978  15.4996  15.4996  15.9198  15.9198  16.8873  16.8873
    17.0973  17.0973  18.0993  18.0993  19.4233  19.4233  19.8031  19.8031
    20.1530  20.1530

          k = 0.6250 0.9382 0.0000 (  1945 PWs)   bands (ev):

   -65.4394 -65.4394 -42.1950 -42.1829 -39.6998 -39.6845 -39.5349 -39.5328
   -17.5224 -17.4900 -17.3619 -17.3594 -10.7858 -10.7721 -10.2195 -10.2117
    -9.2529  -9.2432  -8.5127  -8.4999  -7.2646  -7.2022  -7.1546  -7.1518
    -5.8348  -5.7331  -3.0556  -3.0253  -2.5356  -2.4341  -1.7394  -1.7378
    -1.0438  -1.0274   1.6436   1.6731   3.4794   3.4857   3.8435   3.8514
     4.7393   4.7591   4.8654   4.8960   5.8432   5.8596   7.9870   7.9896
     8.6511   8.6646   9.4611   9.4727  10.3286  10.3310  10.4991  10.5286
    11.9626  11.9706  12.8830  12.8881  13.4553  13.4850  14.0613  14.0633
    14.7432  14.7677  15.5845  15.6134  15.9343  15.9439  16.9811  16.9823
    17.3662  17.4135  18.2447  18.2591  18.3915  18.3967  18.9533  18.9567
    19.8785  19.8791

          k = 0.6250 1.0825 0.0000 (  1951 PWs)   bands (ev):

   -65.4520 -65.4520 -42.2101 -42.1893 -39.7027 -39.6653 -39.5817 -39.5741
   -17.3013 -17.2431 -17.2326 -17.2289 -10.6531 -10.6442 -10.2665 -10.2319
    -9.2143  -9.2100  -8.5521  -8.5130  -8.3778  -8.3361  -7.4383  -7.4309
    -5.5188  -5.3960  -3.3755  -3.3619  -2.2540  -2.2313  -1.9767  -1.8498
    -0.5731  -0.5037   1.8098   1.8819   3.0336   3.1006   4.6183   4.6254
     5.4929   5.5675   5.7574   5.7809   6.6462   6.6580   7.2694   7.2927
     8.0632   8.0724   8.3921   8.3922   9.2607   9.2656  10.9512  10.9988
    11.6143  11.6227  13.0157  13.0209  13.0916  13.0968  13.6506  13.8001
    14.0848  14.0858  15.4929  15.5013  15.6591  15.6885  17.5121  17.5185
    18.6505  18.6516  18.9534  18.9582  19.2479  19.2598  19.9192  19.9337
    20.3962  20.4041

          k = 0.6250 1.2269 0.0000 (  1951 PWs)   bands (ev):

   -65.4520 -65.4520 -42.2101 -42.1893 -39.7027 -39.6653 -39.5817 -39.5741
   -17.3013 -17.2431 -17.2326 -17.2289 -10.6531 -10.6441 -10.2665 -10.2319
    -9.2143  -9.2100  -8.5521  -8.5130  -8.3778  -8.3361  -7.4383  -7.4309
    -5.5188  -5.3960  -3.3755  -3.3619  -2.2540  -2.2313  -1.9767  -1.8498
    -0.5731  -0.5037   1.8098   1.8819   3.0336   3.1006   4.6183   4.6254
     5.4929   5.5675   5.7574   5.7809   6.6463   6.6581   7.2694   7.2927
     8.0632   8.0724   8.3921   8.3922   9.2607   9.2656  10.9512  10.9988
    11.6143  11.6227  13.0157  13.0209  13.0916  13.0968  13.6506  13.8001
    14.0848  14.0858  15.4929  15.5013  15.6591  15.6885  17.5121  17.5185
    18.6505  18.6516  18.9534  18.9582  19.2479  19.2598  19.9192  19.9337
    20.3962  20.4041

          k = 0.6250 1.3712 0.0000 (  1945 PWs)   bands (ev):

   -65.4394 -65.4394 -42.1950 -42.1829 -39.6998 -39.6845 -39.5349 -39.5328
   -17.5224 -17.4900 -17.3619 -17.3594 -10.7858 -10.7721 -10.2195 -10.2117
    -9.2529  -9.2432  -8.5127  -8.4999  -7.2646  -7.2022  -7.1546  -7.1518
    -5.8348  -5.7331  -3.0556  -3.0253  -2.5357  -2.4341  -1.7394  -1.7378
    -1.0438  -1.0273   1.6436   1.6731   3.4794   3.4857   3.8435   3.8514
     4.7393   4.7591   4.8654   4.8960   5.8432   5.8596   7.9870   7.9896
     8.6511   8.6646   9.4611   9.4727  10.3286  10.3309  10.4991  10.5286
    11.9626  11.9706  12.8830  12.8881  13.4553  13.4850  14.0613  14.0633
    14.7432  14.7677  15.5845  15.6134  15.9342  15.9439  16.9811  16.9823
    17.3662  17.4135  18.2447  18.2591  18.3915  18.3967  18.9533  18.9567
    19.8785  19.8791

          k = 0.7500 0.4330 0.0000 (  1947 PWs)   bands (ev):

   -65.4533 -65.4533 -42.1313 -42.1313 -39.5992 -39.5992 -39.4885 -39.4885
   -18.5456 -18.5456 -17.8149 -17.8149 -10.2738 -10.2738  -9.0400  -9.0400
    -8.9139  -8.9139  -7.7429  -7.7429  -7.0052  -7.0052  -6.6818  -6.6818
    -6.0905  -6.0905  -3.1595  -3.1595  -2.9585  -2.9585  -2.3563  -2.3563
    -1.5448  -1.5448   2.9881   2.9881   3.6595   3.6595   4.1727   4.1727
     5.1058   5.1058   5.4431   5.4431   7.0364   7.0364   7.0740   7.0740
     7.6959   7.6959   8.3431   8.3431   9.0108   9.0108   9.1683   9.1683
     9.7448   9.7448  11.9473  11.9473  13.6185  13.6185  14.6790  14.6790
    15.0523  15.0523  15.4636  15.4636  16.4113  16.4113  17.1731  17.1731
    17.2271  17.2271  17.4056  17.4056  18.1199  18.1199  18.8717  18.8717
    19.8157  19.8157

          k = 0.7500 0.5773 0.0000 (  1947 PWs)   bands (ev):

   -65.4537 -65.4537 -42.1213 -42.1179 -39.5838 -39.5823 -39.4782 -39.4717
   -18.7357 -18.7288 -17.8951 -17.8945 -10.2880 -10.2753  -8.8760  -8.8722
    -8.4950  -8.4833  -7.9504  -7.9454  -7.2807  -7.2348  -6.2708  -6.2357
    -5.9017  -5.8752  -3.2564  -3.2304  -2.8503  -2.8454  -2.8025  -2.7371
    -1.5735  -1.5274   3.3563   3.3577   4.2477   4.2673   4.5403   4.5432
     4.8075   4.8612   5.1266   5.1293   6.4169   6.4303   6.4483   6.4800
     7.6463   7.6488   7.8905   7.9319   8.6408   8.6709   9.5705   9.5713
    10.5141  10.5814  11.4135  11.4365  13.3327  13.3372  14.5687  14.5690
    15.8567  15.8703  15.8713  15.8922  16.1486  16.1699  16.3447  16.3486
    17.0845  17.1102  17.8029  17.8606  17.9271  17.9274  18.7432  18.7593
    18.8654  18.8721

          k = 0.7500 0.7217 0.0000 (  1947 PWs)   bands (ev):

   -65.4533 -65.4533 -42.1313 -42.1313 -39.5992 -39.5992 -39.4885 -39.4885
   -18.5456 -18.5456 -17.8149 -17.8149 -10.2738 -10.2738  -9.0400  -9.0400
    -8.9139  -8.9139  -7.7430  -7.7430  -7.0052  -7.0052  -6.6818  -6.6818
    -6.0905  -6.0905  -3.1595  -3.1595  -2.9585  -2.9585  -2.3563  -2.3563
    -1.5448  -1.5448   2.9881   2.9881   3.6595   3.6595   4.1727   4.1727
     5.1058   5.1058   5.4431   5.4431   7.0364   7.0364   7.0740   7.0740
     7.6959   7.6959   8.3431   8.3431   9.0109   9.0109   9.1683   9.1683
     9.7449   9.7449  11.9473  11.9473  13.6185  13.6185  14.6790  14.6790
    15.0523  15.0523  15.4636  15.4636  16.4113  16.4113  17.1731  17.1731
    17.2271  17.2271  17.4056  17.4056  18.1199  18.1199  18.8718  18.8718
    19.8157  19.8157

          k = 0.7500 0.8660 0.0000 (  1938 PWs)   bands (ev):

   -65.4304 -65.4304 -42.1623 -42.1538 -39.6394 -39.6328 -39.5207 -39.5151
   -18.0743 -18.0549 -17.6022 -17.6006 -10.3758 -10.3590  -9.4408  -9.4259
    -9.0496  -9.0397  -8.5067  -8.4917  -7.2624  -7.1872  -6.6632  -6.6383
    -6.1623  -6.0805  -3.3450  -3.2814  -2.7913  -2.7779  -2.3336  -2.2929
    -1.0490  -1.0259   3.1736   3.1959   3.6362   3.6392   3.8307   3.8713
     5.2149   5.2276   5.4558   5.4575   6.3481   6.4227   7.2401   7.2471
     7.3688   7.3774   8.2945   8.2953   9.5251   9.5769   9.8831   9.8871
    10.8879  10.9102  12.5264  12.5420  14.1867  14.2074  14.6574  14.6591
    14.9413  14.9496  15.6405  15.6652  15.6754  15.6805  17.0904  17.0917
    17.2635  17.2678  18.0893  18.1126  18.4238  18.4252  19.3968  19.4295
    19.8374  19.8414

          k = 0.7500 1.0104 0.0000 (  1933 PWs)   bands (ev):

   -65.4173 -65.4173 -42.1936 -42.1765 -39.6805 -39.6557 -39.5545 -39.5543
   -17.5430 -17.4977 -17.3509 -17.3473 -10.4142 -10.4111 -10.2567 -10.2445
    -8.8800  -8.8748  -8.6140  -8.5948  -8.2540  -8.1976  -7.0258  -7.0152
    -5.8667  -5.7646  -3.1228  -3.1152  -2.4591  -2.3579  -2.2537  -2.2433
    -0.7098  -0.6716   2.4511   2.4974   3.4302   3.4874   4.2172   4.2228
     5.4655   5.4881   5.5617   5.5814   6.3144   6.3613   7.3151   7.3205
     7.4823   7.4965   8.6227   8.6336   9.0512   9.0589  10.3482  10.3835
    11.7029  11.7313  13.3117  13.3283  13.4099  13.4125  14.8715  14.9047
    14.9056  14.9403  15.6915  15.6928  16.3148  16.3749  16.8500  16.8658
    17.0502  17.0632  17.9298  17.9355  18.8219  18.8225  19.4681  19.4783
    19.7858  19.7875

          k = 0.7500 1.1547 0.0000 (  1951 PWs)   bands (ev):

   -65.4520 -65.4520 -42.2101 -42.1893 -39.7027 -39.6653 -39.5817 -39.5741
   -17.3013 -17.2431 -17.2326 -17.2289 -10.6531 -10.6442 -10.2665 -10.2319
    -9.2143  -9.2100  -8.5521  -8.5130  -8.3778  -8.3361  -7.4383  -7.4309
    -5.5188  -5.3960  -3.3755  -3.3619  -2.2540  -2.2313  -1.9767  -1.8498
    -0.5731  -0.5037   1.8098   1.8819   3.0336   3.1006   4.6183   4.6254
     5.4929   5.5675   5.7574   5.7809   6.6462   6.6580   7.2694   7.2927
     8.0632   8.0724   8.3921   8.3922   9.2607   9.2656  10.9512  10.9988
    11.6143  11.6227  13.0157  13.0209  13.0916  13.0968  13.6506  13.8001
    14.0848  14.0858  15.4929  15.5013  15.6591  15.6885  17.5121  17.5185
    18.6505  18.6516  18.9534  18.9582  19.2479  19.2598  19.9192  19.9337
    20.3962  20.4041

          k = 0.7500 1.2990 0.0000 (  1933 PWs)   bands (ev):

   -65.4173 -65.4173 -42.1936 -42.1765 -39.6805 -39.6557 -39.5545 -39.5543
   -17.5430 -17.4977 -17.3509 -17.3473 -10.4142 -10.4111 -10.2567 -10.2445
    -8.8800  -8.8748  -8.6140  -8.5948  -8.2540  -8.1976  -7.0258  -7.0152
    -5.8667  -5.7646  -3.1228  -3.1152  -2.4591  -2.3580  -2.2537  -2.2433
    -0.7098  -0.6715   2.4511   2.4974   3.4302   3.4874   4.2173   4.2228
     5.4655   5.4881   5.5617   5.5814   6.3144   6.3613   7.3151   7.3204
     7.4823   7.4965   8.6227   8.6336   9.0512   9.0589  10.3482  10.3835
    11.7029  11.7313  13.3117  13.3283  13.4099  13.4125  14.8715  14.9047
    14.9056  14.9403  15.6915  15.6927  16.3148  16.3750  16.8499  16.8658
    17.0501  17.0631  17.9298  17.9355  18.8219  18.8225  19.4681  19.4783
    19.7858  19.7875

          k = 0.7500 1.4434 0.0000 (  1938 PWs)   bands (ev):

   -65.4304 -65.4304 -42.1623 -42.1538 -39.6394 -39.6328 -39.5207 -39.5151
   -18.0743 -18.0549 -17.6022 -17.6006 -10.3758 -10.3590  -9.4408  -9.4259
    -9.0496  -9.0397  -8.5067  -8.4917  -7.2624  -7.1872  -6.6632  -6.6383
    -6.1623  -6.0805  -3.3450  -3.2814  -2.7914  -2.7779  -2.3335  -2.2929
    -1.0490  -1.0259   3.1736   3.1959   3.6362   3.6392   3.8307   3.8713
     5.2149   5.2276   5.4558   5.4575   6.3481   6.4227   7.2401   7.2471
     7.3688   7.3774   8.2945   8.2952   9.5251   9.5769   9.8831   9.8871
    10.8880  10.9102  12.5264  12.5420  14.1867  14.2074  14.6574  14.6591
    14.9413  14.9496  15.6405  15.6651  15.6754  15.6805  17.0904  17.0917
    17.2635  17.2678  18.0893  18.1126  18.4238  18.4252  19.3968  19.4295
    19.8374  19.8414

          k = 0.8750 0.5052 0.0000 (  1957 PWs)   bands (ev):

   -65.4771 -65.4771 -42.0942 -42.0942 -39.5648 -39.5648 -39.4240 -39.4240
   -19.1469 -19.1469 -18.0776 -18.0776 -10.6255 -10.6255  -8.3118  -8.3118
    -7.9118  -7.9118  -7.5909  -7.5909  -7.0901  -7.0901  -6.3730  -6.3730
    -5.5213  -5.5213  -2.8384  -2.8384  -2.7283  -2.7283  -2.5709  -2.5709
    -2.1656  -2.1656   2.0794   2.0794   4.0600   4.0600   4.5426   4.5426
     4.9771   4.9771   5.1945   5.1945   6.2732   6.2732   6.3522   6.3522
     7.4170   7.4170   7.6413   7.6413   9.5740   9.5740  10.3588  10.3588
    10.5631  10.5631  11.1718  11.1718  12.1026  12.1026  12.7391  12.7391
    14.7657  14.7657  14.9017  14.9017  16.0907  16.0907  16.2725  16.2725
    17.8848  17.8848  17.9783  17.9783  18.8979  18.8979  19.2878  19.2878
    20.2208  20.2208

          k = 0.8750 0.6495 0.0000 (  1957 PWs)   bands (ev):

   -65.4771 -65.4771 -42.0942 -42.0942 -39.5648 -39.5648 -39.4240 -39.4240
   -19.1469 -19.1469 -18.0776 -18.0776 -10.6255 -10.6255  -8.3118  -8.3118
    -7.9117  -7.9117  -7.5909  -7.5909  -7.0902  -7.0902  -6.3730  -6.3730
    -5.5213  -5.5213  -2.8384  -2.8384  -2.7283  -2.7283  -2.5709  -2.5709
    -2.1656  -2.1656   2.0794   2.0794   4.0600   4.0600   4.5426   4.5426
     4.9771   4.9771   5.1945   5.1945   6.2732   6.2732   6.3522   6.3522
     7.4170   7.4170   7.6412   7.6412   9.5740   9.5740  10.3587  10.3587
    10.5631  10.5631  11.1718  11.1718  12.1026  12.1026  12.7391  12.7391
    14.7657  14.7657  14.9017  14.9017  16.0907  16.0907  16.2725  16.2725
    17.8848  17.8848  17.9783  17.9783  18.8978  18.8978  19.2878  19.2878
    20.2208  20.2208

          k = 0.8750 0.7939 0.0000 (  1947 PWs)   bands (ev):

   -65.4537 -65.4537 -42.1213 -42.1179 -39.5838 -39.5823 -39.4782 -39.4717
   -18.7357 -18.7288 -17.8951 -17.8945 -10.2880 -10.2753  -8.8760  -8.8722
    -8.4950  -8.4833  -7.9504  -7.9454  -7.2807  -7.2348  -6.2708  -6.2357
    -5.9017  -5.8752  -3.2564  -3.2304  -2.8503  -2.8454  -2.8025  -2.7371
    -1.5735  -1.5274   3.3563   3.3577   4.2477   4.2673   4.5403   4.5432
     4.8075   4.8612   5.1266   5.1293   6.4169   6.4303   6.4483   6.4800
     7.6463   7.6488   7.8905   7.9319   8.6408   8.6709   9.5705   9.5713
    10.5141  10.5814  11.4134  11.4365  13.3327  13.3372  14.5687  14.5690
    15.8567  15.8703  15.8713  15.8923  16.1486  16.1699  16.3447  16.3486
    17.0845  17.1102  17.8029  17.8606  17.9271  17.9274  18.7432  18.7593
    18.8654  18.8721

          k = 0.8750 0.9382 0.0000 (  1938 PWs)   bands (ev):

   -65.4304 -65.4304 -42.1623 -42.1538 -39.6394 -39.6328 -39.5207 -39.5151
   -18.0743 -18.0549 -17.6022 -17.6006 -10.3758 -10.3590  -9.4408  -9.4259
    -9.0496  -9.0397  -8.5067  -8.4917  -7.2624  -7.1872  -6.6632  -6.6383
    -6.1623  -6.0805  -3.3450  -3.2814  -2.7913  -2.7779  -2.3335  -2.2929
    -1.0491  -1.0259   3.1736   3.1959   3.6362   3.6392   3.8307   3.8713
     5.2149   5.2276   5.4558   5.4575   6.3481   6.4227   7.2401   7.2471
     7.3688   7.3774   8.2945   8.2953   9.5251   9.5769   9.8831   9.8871
    10.8879  10.9102  12.5264  12.5420  14.1867  14.2074  14.6574  14.6591
    14.9413  14.9496  15.6405  15.6652  15.6754  15.6805  17.0904  17.0917
    17.2635  17.2678  18.0893  18.1126  18.4238  18.4252  19.3968  19.4295
    19.8374  19.8414

          k = 0.8750 1.0825 0.0000 (  1945 PWs)   bands (ev):

   -65.4394 -65.4394 -42.1950 -42.1829 -39.6998 -39.6845 -39.5349 -39.5328
   -17.5224 -17.4900 -17.3619 -17.3594 -10.7858 -10.7721 -10.2195 -10.2117
    -9.2529  -9.2432  -8.5127  -8.4999  -7.2646  -7.2022  -7.1546  -7.1518
    -5.8348  -5.7331  -3.0556  -3.0253  -2.5356  -2.4341  -1.7394  -1.7378
    -1.0438  -1.0273   1.6436   1.6731   3.4794   3.4857   3.8435   3.8514
     4.7393   4.7591   4.8654   4.8961   5.8432   5.8596   7.9870   7.9896
     8.6511   8.6646   9.4611   9.4727  10.3286  10.3309  10.4991  10.5286
    11.9626  11.9706  12.8830  12.8881  13.4553  13.4851  14.0614  14.0633
    14.7432  14.7677  15.5845  15.6134  15.9343  15.9439  16.9811  16.9823
    17.3662  17.4135  18.2447  18.2591  18.3915  18.3967  18.9533  18.9567
    19.8785  19.8791

          k = 0.8750 1.2269 0.0000 (  1945 PWs)   bands (ev):

   -65.4394 -65.4394 -42.1950 -42.1829 -39.6998 -39.6845 -39.5349 -39.5328
   -17.5224 -17.4900 -17.3619 -17.3594 -10.7858 -10.7721 -10.2195 -10.2117
    -9.2529  -9.2432  -8.5127  -8.4999  -7.2646  -7.2022  -7.1546  -7.1518
    -5.8348  -5.7331  -3.0556  -3.0253  -2.5357  -2.4341  -1.7394  -1.7378
    -1.0438  -1.0273   1.6436   1.6731   3.4794   3.4857   3.8435   3.8514
     4.7393   4.7591   4.8654   4.8960   5.8432   5.8596   7.9870   7.9896
     8.6511   8.6646   9.4611   9.4727  10.3286  10.3309  10.4991  10.5286
    11.9626  11.9706  12.8830  12.8881  13.4553  13.4850  14.0613  14.0633
    14.7432  14.7677  15.5845  15.6134  15.9342  15.9439  16.9811  16.9823
    17.3662  17.4135  18.2447  18.2591  18.3915  18.3967  18.9533  18.9567
    19.8785  19.8791

          k = 0.8750 1.3712 0.0000 (  1938 PWs)   bands (ev):

   -65.4304 -65.4304 -42.1623 -42.1538 -39.6394 -39.6328 -39.5207 -39.5151
   -18.0743 -18.0549 -17.6022 -17.6006 -10.3758 -10.3590  -9.4408  -9.4259
    -9.0496  -9.0397  -8.5067  -8.4917  -7.2624  -7.1872  -6.6632  -6.6383
    -6.1623  -6.0805  -3.3450  -3.2814  -2.7914  -2.7779  -2.3335  -2.2929
    -1.0490  -1.0259   3.1736   3.1959   3.6362   3.6392   3.8307   3.8713
     5.2149   5.2276   5.4558   5.4575   6.3481   6.4227   7.2401   7.2471
     7.3688   7.3774   8.2945   8.2952   9.5251   9.5769   9.8831   9.8871
    10.8880  10.9102  12.5264  12.5420  14.1867  14.2074  14.6574  14.6591
    14.9413  14.9496  15.6405  15.6651  15.6754  15.6805  17.0904  17.0917
    17.2635  17.2678  18.0893  18.1126  18.4238  18.4252  19.3968  19.4295
    19.8374  19.8414

          k = 0.8750 1.5155 0.0000 (  1947 PWs)   bands (ev):

   -65.4537 -65.4537 -42.1213 -42.1179 -39.5838 -39.5823 -39.4782 -39.4717
   -18.7357 -18.7288 -17.8951 -17.8945 -10.2880 -10.2753  -8.8760  -8.8721
    -8.4950  -8.4833  -7.9503  -7.9454  -7.2807  -7.2348  -6.2708  -6.2357
    -5.9017  -5.8752  -3.2564  -3.2304  -2.8503  -2.8454  -2.8025  -2.7371
    -1.5735  -1.5274   3.3563   3.3577   4.2477   4.2673   4.5403   4.5432
     4.8075   4.8612   5.1266   5.1293   6.4169   6.4303   6.4483   6.4800
     7.6463   7.6488   7.8905   7.9319   8.6408   8.6709   9.5705   9.5713
    10.5141  10.5814  11.4134  11.4365  13.3327  13.3372  14.5687  14.5690
    15.8567  15.8703  15.8713  15.8922  16.1486  16.1699  16.3447  16.3486
    17.0845  17.1102  17.8029  17.8606  17.9271  17.9274  18.7432  18.7593
    18.8654  18.8721

     highest occupied, lowest unoccupied level (ev):    -5.3814   -3.3755

     Writing all to output data dir ./MoS2.save/ :
     XML data file, pseudopotentials, collected wavefunctions
 
     init_run     :      0.12s CPU      0.25s WALL (       1 calls)
     electrons    :     13.85s CPU     14.74s WALL (       1 calls)

     Called by init_run:
     wfcinit      :      0.00s CPU      0.00s WALL (       1 calls)
     potinit      :      0.01s CPU      0.05s WALL (       1 calls)
     hinit0       :      0.10s CPU      0.17s WALL (       1 calls)

     Called by electrons:
     c_bands      :     13.85s CPU     14.72s WALL (       1 calls)
     v_of_rho     :      0.01s CPU      0.04s WALL (       1 calls)

     Called by c_bands:
     init_us_2    :      0.00s CPU      0.00s WALL (      16 calls)
     cegterg      :     13.05s CPU     13.26s WALL (      38 calls)

     Called by *egterg:
     cdiaghg      :      2.60s CPU      2.86s WALL (     652 calls)
                                        2.85s GPU  (     652 calls)
     h_psi        :     10.48s CPU     10.76s WALL (     690 calls)
                                       10.76s GPU  (     690 calls)
     g_psi        :      0.00s CPU      0.01s WALL (     636 calls)
                                        0.01s GPU  (     636 calls)

     Called by h_psi:
     h_psi:calbec :      0.06s CPU      0.19s WALL (     690 calls)
                                        0.18s GPU  (     690 calls)
     vloc_psi     :     10.27s CPU     10.45s WALL (     690 calls)
                                       10.45s GPU  (     690 calls)
     add_vuspsi   :      0.06s CPU      0.09s WALL (     690 calls)
                                        0.09s GPU  (     690 calls)

     General routines
     calbec       :      0.06s CPU      0.17s WALL (     690 calls)
     fft          :      0.00s CPU      0.08s WALL (      14 calls)
                                        0.08s GPU  (      14 calls)
     fftw         :      0.98s CPU      2.97s WALL (  110504 calls)
                                        2.26s GPU  (  110504 calls)
     davcio       :      0.12s CPU      0.09s WALL (      32 calls)
 
     Parallel routines
 
     PWSCF        :     14.60s CPU     15.61s WALL

 
   This run was terminated on:   9:42:51  27Apr2026            

=------------------------------------------------------------------------------=
   JOB DONE.
=------------------------------------------------------------------------------=
Warning: ieee_inexact is signaling
FORTRAN STOP
Warning: ieee_inexact is signaling
FORTRAN STOP
Warning: ieee_inexact is signaling
FORTRAN STOP
Warning: ieee_inexact is signaling
FORTRAN STOP
