
     Program PWSCF v.7.5 starts on 20Jul2026 at 13:56:31 

     This program is part of the open-source Quantum ESPRESSO suite
     for quantum simulation of materials; please cite
         "P. Giannozzi et al., J. Phys.:Condens. Matter 21 395502 (2009);
         "P. Giannozzi et al., J. Phys.:Condens. Matter 29 465901 (2017);
         "P. Giannozzi et al., J. Chem. Phys. 152 154105 (2020);
          URL http://www.quantum-espresso.org", 
     in publications or presentations arising from this work. More details at
     http://www.quantum-espresso.org/quote

     Parallel version (MPI & OpenMP), running on     256 processor cores
     Number of MPI processes:                16
     Threads/MPI process:                    16

     MPI processes distributed on     4 nodes
     238218 MiB available memory on the printing compute node when the environment starts
 
     Reading input from nscf.in

     Current dimensions of program PWSCF are:
     Max number of different atomic species (ntypx) = 10
     Max number of k-points (npk) =  40000
     Max angular momentum in pseudopotentials (lmaxx) =  4

     Atomic positions and unit cell read from directory:
     ./MoS2.save/
 
     Message from routine setup:
     using ibrav=0 with symmetry is DISCOURAGED, use correct ibrav instead
 
     K-points division:     npool     =      16
     Subspace diagonalization in iterative solution of the eigenvalue problem:
     a serial algorithm will be used

 
     G-vector sticks info
     --------------------
     sticks:   dense  smooth     PW     G-vecs:    dense   smooth      PW
     Sum         301     301    121                15631    15631    4409
 
     Using Slab Decomposition
 


     bravais-lattice index     =            0
     lattice parameter (alat)  =       5.9796  a.u.
     unit-cell volume          =     702.2012 (a.u.)^3
     number of atoms/cell      =            3
     number of atomic types    =            2
     number of electrons       =        26.00
     number of Kohn-Sham states=          210
     kinetic-energy cutoff     =      30.0000  Ry
     charge density cutoff     =     120.0000  Ry
     Exchange-correlation= PBE
                           (   1   4   3   4   0   0   0)
     Non magnetic calculation with spin-orbit


     GPU acceleration is ACTIVE.  4 visible GPUs per MPI rank


     celldm(1)=   5.979645  celldm(2)=   0.000000  celldm(3)=   0.000000
     celldm(4)=   0.000000  celldm(5)=   0.000000  celldm(6)=   0.000000

     crystal axes: (cart. coord. in units of alat)
               a(1) = (   1.000000   0.000000   0.000000 )  
               a(2) = (  -0.499999   0.866025   0.000000 )  
               a(3) = (   0.000000   0.000000   3.792318 )  

     reciprocal axes: (cart. coord. in units 2 pi/alat)
               b(1) = (  1.000000  0.577349 -0.000000 )  
               b(2) = (  0.000000  1.154701  0.000000 )  
               b(3) = (  0.000000 -0.000000  0.263691 )  


     PseudoPot. # 1 for Mo read from file:
     ./Mo.upf
     MD5 check sum: 4e1c3579de4f68baf863f15f5be96aa1
     Pseudo is Norm-conserving + core correction, Zval = 14.0
     Generated using ONCVPSP code by D. R. Hamann
     Using radial grid of 1640 points, 10 beta functions with: 
                l(1) =   0
                l(2) =   0
                l(3) =   1
                l(4) =   1
                l(5) =   1
                l(6) =   1
                l(7) =   2
                l(8) =   2
                l(9) =   2
               l(10) =   2

     PseudoPot. # 2 for S  read from file:
     ./S.upf
     MD5 check sum: a7319d53700e7dada26ada44d0048388
     Pseudo is Norm-conserving + core correction, Zval =  6.0
     Generated using ONCVPSP code by D. R. Hamann
     Using radial grid of 1146 points, 10 beta functions with: 
                l(1) =   0
                l(2) =   0
                l(3) =   1
                l(4) =   1
                l(5) =   1
                l(6) =   1
                l(7) =   2
                l(8) =   2
                l(9) =   2
               l(10) =   2

     atomic species   valence    mass     pseudopotential
     Mo               14.00    95.94000     Mo( 1.00)
     S                 6.00    32.07000     S ( 1.00)

      2 Sym. Ops. (no inversion) found



   Cartesian axes

     site n.     atom                  positions (alat units)
         1        Mo     tau(   1) = (   0.5000009   0.2886748   0.0000000  )
         2        S      tau(   2) = (   0.0000003   0.5773505   0.5003129  )
         3        S      tau(   3) = (   0.0000003   0.5773505  -0.5003129  )

     number of k points=    36
                       cart. coord. in units 2pi/alat
        k(    1) = (   0.0000000   0.0000000   0.0000000), wk =   0.0277778
        k(    2) = (   0.0000000   0.1924501   0.0000000), wk =   0.0277778
        k(    3) = (   0.0000000   0.3849002   0.0000000), wk =   0.0277778
        k(    4) = (   0.0000000   0.5773503   0.0000000), wk =   0.0277778
        k(    5) = (   0.0000000   0.7698004   0.0000000), wk =   0.0277778
        k(    6) = (   0.0000000   0.9622505   0.0000000), wk =   0.0277778
        k(    7) = (   0.1666667   0.0962248   0.0000000), wk =   0.0277778
        k(    8) = (   0.1666667   0.2886749   0.0000000), wk =   0.0277778
        k(    9) = (   0.1666667   0.4811250   0.0000000), wk =   0.0277778
        k(   10) = (   0.1666667   0.6735751   0.0000000), wk =   0.0277778
        k(   11) = (   0.1666667   0.8660252   0.0000000), wk =   0.0277778
        k(   12) = (   0.1666667   1.0584753   0.0000000), wk =   0.0277778
        k(   13) = (   0.3333333   0.1924496   0.0000000), wk =   0.0277778
        k(   14) = (   0.3333333   0.3848997   0.0000000), wk =   0.0277778
        k(   15) = (   0.3333333   0.5773498   0.0000000), wk =   0.0277778
        k(   16) = (   0.3333333   0.7697999   0.0000000), wk =   0.0277778
        k(   17) = (   0.3333333   0.9622501   0.0000000), wk =   0.0277778
        k(   18) = (   0.3333333   1.1547002   0.0000000), wk =   0.0277778
        k(   19) = (   0.5000000   0.2886744   0.0000000), wk =   0.0277778
        k(   20) = (   0.5000000   0.4811245   0.0000000), wk =   0.0277778
        k(   21) = (   0.5000000   0.6735746   0.0000000), wk =   0.0277778
        k(   22) = (   0.5000000   0.8660248   0.0000000), wk =   0.0277778
        k(   23) = (   0.5000000   1.0584749   0.0000000), wk =   0.0277778
        k(   24) = (   0.5000000   1.2509250   0.0000000), wk =   0.0277778
        k(   25) = (   0.6666667   0.3848992   0.0000000), wk =   0.0277778
        k(   26) = (   0.6666667   0.5773494   0.0000000), wk =   0.0277778
        k(   27) = (   0.6666667   0.7697995   0.0000000), wk =   0.0277778
        k(   28) = (   0.6666667   0.9622496   0.0000000), wk =   0.0277778
        k(   29) = (   0.6666667   1.1546997   0.0000000), wk =   0.0277778
        k(   30) = (   0.6666667   1.3471498   0.0000000), wk =   0.0277778
        k(   31) = (   0.8333333   0.4811241   0.0000000), wk =   0.0277778
        k(   32) = (   0.8333333   0.6735742   0.0000000), wk =   0.0277778
        k(   33) = (   0.8333333   0.8660243   0.0000000), wk =   0.0277778
        k(   34) = (   0.8333333   1.0584744   0.0000000), wk =   0.0277778
        k(   35) = (   0.8333333   1.2509245   0.0000000), wk =   0.0277778
        k(   36) = (   0.8333333   1.4433746   0.0000000), wk =   0.0277778

     Dense  grid:    15631 G-vectors     FFT dimensions: (  24,  24,  80)

     Estimated max dynamical RAM per process >     165.05 MB

     Estimated total dynamical RAM >       2.58 GB
 ----2D----2D----2D----2D----2D----2D----2D----2D----2D----2D----2D----2D
  The code is running with the 2D cutoff
  Please refer to:
  Sohier, T., Calandra, M., & Mauri, F. (2017), 
  Density functional perturbation theory for gated two-dimensional heterostructures:
  Theoretical developments and application to flexural phonons in graphene.
  Physical Review B, 96(7), 75448. https://doi.org/10.1103/PhysRevB.96.075448
 ----2D----2D----2D----2D----2D----2D----2D----2D----2D----2D----2D----2D

     The potential is recalculated from file :
     ./MoS2.save/charge-density

     Starting wfcs are   36 randomized atomic wfcs +  174 random wfcs

     Band Structure Calculation
     Davidson diagonalization with overlap

     ethr =  3.85E-13,  avg # of iterations = 41.9

     total cpu time spent up to now is        6.8 secs

     End of band structure calculation

          k = 0.0000 0.0000 0.0000 (  1947 PWs)   bands (ev):

   -65.4844 -65.4844 -42.1006 -42.1006 -39.5800 -39.5800 -39.4048 -39.4048
   -19.3869 -19.3869 -18.1882 -18.1882 -10.8914 -10.8914  -7.8809  -7.8809
    -7.8216  -7.8216  -7.1304  -7.1304  -6.7993  -6.7993  -6.7183  -6.7183
    -5.3990  -5.3990  -2.5914  -2.5914  -2.5154  -2.5154  -2.3478  -2.3478
    -2.3396  -2.3396   1.0836   1.0836   3.7348   3.7348   3.9469   3.9469
     4.7851   4.7851   5.5032   5.5032   5.5799   5.5799   7.4799   7.4799
     7.4974   7.4974   7.6547   7.6547  10.7616  10.7616  10.7762  10.7762
    10.8505  10.8505  11.1000  11.1000  11.1070  11.1070  11.2334  11.2334
    14.0355  14.0355  14.2778  14.2778  14.6619  14.6619  16.0716  16.0716
    18.0616  18.0616  18.2386  18.2386  20.5968  20.5968  20.8233  20.8233
    20.8386  20.8386  21.1486  21.1486  21.8014  21.8014  22.2644  22.2644
    22.3111  22.3111  22.9883  22.9883  23.4357  23.4357  23.4473  23.4473
    24.0787  24.0787  24.0874  24.0874  24.2509  24.2509  25.8346  25.8346
    27.4858  27.4858  27.5437  27.5437  28.3169  28.3169  28.4417  28.4417
    28.4578  28.4578  29.8126  29.8126  30.1201  30.1201  30.1267  30.1267
    30.2034  30.2034  31.8689  31.8689  32.1212  32.1212  32.1233  32.1233
    32.1538  32.1538  32.2773  32.2773  32.6699  32.6699  32.6729  32.6729
    33.8850  33.8850  34.2938  34.2938  34.2980  34.2980  34.8359  34.8359
    34.9537  34.9537  34.9683  34.9683  36.0448  36.0448  36.2835  36.2835
    36.2857  36.2857  37.6857  37.6857  37.6874  37.6874  37.9727  37.9727
    38.1759  38.1759  38.5923  38.5923  39.2492  39.2492  39.2659  39.2659
    39.7279  39.7279  39.8200  39.8200  41.4106  41.4106  41.4528  41.4528
    41.9455  41.9455  42.0067  42.0067  42.3754  42.3754  43.1230  43.1230
    43.9323  43.9323  44.2958  44.2958  44.3126  44.3126  44.6205  44.6205
    44.6335  44.6335  44.9991  44.9991  45.5958  45.5958  46.4497  46.4497
    46.5573  46.5573  46.5716  46.5716  47.9016  47.9016  48.4653  48.4653
    48.7684  48.7684

          k = 0.0000 0.1925 0.0000 (  1941 PWs)   bands (ev):

   -65.4660 -65.4660 -42.1262 -42.1262 -39.5935 -39.5935 -39.4649 -39.4649
   -18.9896 -18.9896 -18.0142 -18.0142 -10.4825 -10.4825  -8.6068  -8.6068
    -8.2562  -8.2562  -7.4369  -7.4369  -7.3174  -7.3174  -6.4098  -6.4098
    -5.6829  -5.6829  -3.0395  -3.0395  -2.7375  -2.7375  -2.6973  -2.6973
    -1.9680  -1.9680   2.5750   2.5750   4.1378   4.1378   4.4986   4.4986
     5.0114   5.0114   5.2087   5.2087   6.2742   6.2742   6.7551   6.7551
     7.2140   7.2140   7.7848   7.7848   9.1241   9.1241   9.8887   9.8887
    10.2805  10.2805  11.4125  11.4125  12.5790  12.5790  13.6269  13.6269
    15.2324  15.2324  15.2613  15.2613  16.2004  16.2004  16.8157  16.8157
    17.3016  17.3016  17.6279  17.6279  18.6136  18.6136  18.8009  18.8009
    19.9439  19.9439  20.0861  20.0861  21.0511  21.0511  21.7674  21.7674
    21.9565  21.9565  22.4070  22.4070  24.3025  24.3025  24.8377  24.8377
    24.9234  24.9234  25.3077  25.3077  25.6311  25.6311  26.2623  26.2623
    26.9779  26.9779  27.1469  27.1469  27.2518  27.2518  28.5602  28.5602
    28.7727  28.7727  28.8990  28.8990  29.2078  29.2078  29.5018  29.5018
    30.4112  30.4112  30.7093  30.7093  30.9737  30.9737  31.1795  31.1795
    31.2704  31.2704  32.3269  32.3269  32.4416  32.4416  33.5034  33.5034
    33.8330  33.8330  33.9403  33.9403  34.0366  34.0366  34.3460  34.3460
    35.6792  35.6792  35.7967  35.7967  36.0020  36.0020  36.6085  36.6085
    37.4736  37.4736  38.0310  38.0310  38.2006  38.2006  38.3773  38.3773
    39.3634  39.3634  39.4343  39.4343  39.6075  39.6075  40.4307  40.4307
    40.5630  40.5630  41.3880  41.3880  41.6920  41.6920  42.0477  42.0477
    42.2169  42.2169  42.4996  42.4996  42.6385  42.6385  42.7140  42.7140
    43.7089  43.7089  44.3092  44.3092  44.4367  44.4367  44.8209  44.8209
    45.6658  45.6658  46.1076  46.1076  46.1982  46.1982  46.3082  46.3082
    46.9124  46.9124  46.9530  46.9530  47.2269  47.2270  47.2428  47.2429
    48.2734  48.2734

          k = 0.0000 0.3849 0.0000 (  1963 PWs)   bands (ev):

   -65.5052 -65.5052 -42.1867 -42.1867 -39.6751 -39.6751 -39.5384 -39.5384
   -18.0729 -18.0729 -17.6182 -17.6182 -10.5446 -10.5446  -9.5588  -9.5588
    -9.1792  -9.1792  -8.1346  -8.1346  -7.0263  -7.0263  -6.6128  -6.6128
    -6.3327  -6.3327  -3.1263  -3.1263  -2.9988  -2.9988  -1.8916  -1.8916
    -1.2790  -1.2790   2.6519   2.6519   2.9090   2.9090   3.2821   3.2821
     5.1672   5.1672   5.5827   5.5827   7.1496   7.1496   7.6205   7.6205
     7.7140   7.7140   9.1594   9.1594   9.7016   9.7016  10.0835  10.0835
    10.1609  10.1609  12.3723  12.3723  13.5514  13.5514  13.8774  13.8774
    14.8341  14.8341  15.5923  15.5923  16.2627  16.2627  17.0477  17.0477
    17.2052  17.2052  17.6703  17.6703  19.4710  19.4710  19.5641  19.5641
    19.7671  19.7671  20.7800  20.7800  21.1042  21.1042  21.2221  21.2221
    22.7484  22.7484  22.7589  22.7589  22.9179  22.9179  22.9494  22.9494
    24.0637  24.0637  24.0847  24.0847  24.3219  24.3219  25.0224  25.0224
    26.0733  26.0733  26.1409  26.1409  26.8187  26.8187  26.9124  26.9124
    27.1350  27.1350  29.5300  29.5300  29.6834  29.6834  29.8965  29.8965
    30.3902  30.3902  30.6715  30.6715  30.7148  30.7148  30.9835  30.9835
    32.2832  32.2832  32.6043  32.6043  33.1414  33.1414  33.3504  33.3504
    34.5078  34.5078  34.5772  34.5772  34.9328  34.9328  35.0796  35.0796
    35.9206  35.9206  36.0824  36.0824  36.3714  36.3714  36.4542  36.4542
    37.2998  37.2998  37.4310  37.4310  38.6455  38.6455  38.7807  38.7807
    39.3427  39.3427  39.3585  39.3585  39.5746  39.5746  39.9757  39.9757
    41.4947  41.4947  41.5114  41.5114  41.8227  41.8227  42.6243  42.6243
    42.7944  42.7944  43.0010  43.0010  43.4791  43.4791  43.5832  43.5832
    43.6900  43.6900  44.3375  44.3375  44.4101  44.4101  44.8854  44.8854
    45.5296  45.5296  45.9056  45.9056  46.6154  46.6154  46.6662  46.6662
    47.1737  47.1737  47.3404  47.3404  48.1491  48.1491  48.4540  48.4540
    48.5109  48.5109

          k = 0.0000 0.5774 0.0000 (  1964 PWs)   bands (ev):

   -65.5008 -65.5008 -42.2173 -42.2173 -39.7342 -39.7342 -39.5467 -39.5467
   -17.5046 -17.5046 -17.3844 -17.3844 -11.0873 -11.0873 -10.1904 -10.1904
    -9.4109  -9.4109  -8.4530  -8.4530  -7.2974  -7.2974  -6.2432  -6.2432
    -5.9768  -5.9768  -3.0553  -3.0553  -2.5419  -2.5419  -1.4584  -1.4584
    -1.0667  -1.0667   1.1259   1.1259   2.5775   2.5775   3.2161   3.2161
     4.4353   4.4353   4.9845   4.9845   6.0118   6.0118   8.3285   8.3285
     9.0019   9.0019  10.3929  10.3929  10.4040  10.4040  11.8511  11.8511
    12.0747  12.0747  12.7846  12.7846  13.4165  13.4165  14.1063  14.1063
    14.5925  14.5925  15.0064  15.0064  15.6547  15.6547  16.3987  16.3987
    16.4197  16.4197  18.8874  18.8874  18.9379  18.9379  19.5325  19.5325
    19.7909  19.7909  19.8541  19.8541  20.2401  20.2401  20.8904  20.8904
    21.6577  21.6577  22.3546  22.3546  22.4510  22.4510  22.7318  22.7318
    23.8167  23.8167  25.0303  25.0303  25.5741  25.5741  25.5930  25.5930
    26.3073  26.3073  27.1781  27.1781  27.3413  27.3413  27.9862  27.9862
    28.0829  28.0829  28.7134  28.7134  29.1203  29.1203  29.3781  29.3781
    29.5403  29.5403  30.1882  30.1882  30.4439  30.4439  31.7698  31.7698
    31.8377  31.8377  31.8872  31.8872  32.5751  32.5751  33.1667  33.1667
    33.8817  33.8817  34.0144  34.0144  34.3511  34.3511  34.8950  34.8950
    35.0563  35.0563  36.2161  36.2161  36.3625  36.3625  36.4288  36.4288
    37.1991  37.1991  37.2662  37.2662  38.3057  38.3057  39.5075  39.5075
    39.6108  39.6108  40.0992  40.0992  40.1581  40.1581  40.1825  40.1825
    40.5291  40.5291  41.1091  41.1091  41.7370  41.7370  41.9768  41.9768
    42.6565  42.6565  42.7161  42.7161  43.5555  43.5555  44.2494  44.2494
    44.6163  44.6163  45.1487  45.1487  45.2730  45.2730  45.4452  45.4452
    45.7701  45.7701  46.1863  46.1863  46.8760  46.8760  47.2849  47.2849
    47.6120  47.6120  48.1735  48.1735  48.6896  48.6896  48.8515  48.8515
    48.9851  48.9851

          k = 0.0000 0.7698 0.0000 (  1963 PWs)   bands (ev):

   -65.5052 -65.5052 -42.1867 -42.1867 -39.6751 -39.6751 -39.5384 -39.5384
   -18.0729 -18.0729 -17.6182 -17.6182 -10.5446 -10.5446  -9.5588  -9.5588
    -9.1792  -9.1792  -8.1346  -8.1346  -7.0263  -7.0263  -6.6128  -6.6128
    -6.3327  -6.3327  -3.1263  -3.1263  -2.9988  -2.9988  -1.8916  -1.8916
    -1.2790  -1.2790   2.6519   2.6519   2.9090   2.9090   3.2821   3.2821
     5.1672   5.1672   5.5827   5.5827   7.1496   7.1496   7.6205   7.6205
     7.7140   7.7140   9.1594   9.1594   9.7016   9.7016  10.0835  10.0835
    10.1609  10.1609  12.3723  12.3723  13.5514  13.5514  13.8774  13.8774
    14.8341  14.8341  15.5923  15.5923  16.2627  16.2627  17.0477  17.0477
    17.2052  17.2052  17.6703  17.6703  19.4710  19.4710  19.5641  19.5641
    19.7671  19.7671  20.7800  20.7800  21.1042  21.1042  21.2221  21.2221
    22.7484  22.7484  22.7589  22.7589  22.9179  22.9179  22.9494  22.9494
    24.0637  24.0637  24.0847  24.0847  24.3219  24.3219  25.0224  25.0224
    26.0733  26.0733  26.1409  26.1409  26.8187  26.8187  26.9124  26.9124
    27.1350  27.1350  29.5300  29.5300  29.6834  29.6834  29.8965  29.8965
    30.3902  30.3902  30.6715  30.6715  30.7148  30.7148  30.9835  30.9835
    32.2832  32.2832  32.6043  32.6043  33.1414  33.1414  33.3504  33.3504
    34.5078  34.5078  34.5772  34.5772  34.9328  34.9328  35.0796  35.0796
    35.9206  35.9206  36.0824  36.0824  36.3714  36.3714  36.4542  36.4542
    37.2998  37.2998  37.4310  37.4310  38.6455  38.6455  38.7807  38.7807
    39.3427  39.3427  39.3585  39.3585  39.5746  39.5746  39.9757  39.9757
    41.4947  41.4947  41.5114  41.5114  41.8227  41.8227  42.6243  42.6243
    42.7944  42.7944  43.0010  43.0010  43.4791  43.4791  43.5832  43.5832
    43.6900  43.6900  44.3375  44.3375  44.4101  44.4101  44.8854  44.8854
    45.5296  45.5296  45.9056  45.9056  46.6154  46.6154  46.6662  46.6662
    47.1737  47.1737  47.3404  47.3404  48.1491  48.1491  48.4540  48.4540
    48.5109  48.5109

          k = 0.0000 0.9623 0.0000 (  1941 PWs)   bands (ev):

   -65.4660 -65.4660 -42.1262 -42.1262 -39.5935 -39.5935 -39.4649 -39.4649
   -18.9896 -18.9896 -18.0142 -18.0142 -10.4825 -10.4825  -8.6068  -8.6068
    -8.2562  -8.2562  -7.4369  -7.4369  -7.3174  -7.3174  -6.4098  -6.4098
    -5.6829  -5.6829  -3.0395  -3.0395  -2.7375  -2.7375  -2.6973  -2.6973
    -1.9680  -1.9680   2.5750   2.5750   4.1378   4.1378   4.4986   4.4986
     5.0114   5.0114   5.2087   5.2087   6.2742   6.2742   6.7551   6.7551
     7.2140   7.2140   7.7848   7.7848   9.1241   9.1241   9.8887   9.8887
    10.2805  10.2805  11.4125  11.4125  12.5790  12.5790  13.6269  13.6269
    15.2324  15.2324  15.2613  15.2613  16.2004  16.2004  16.8157  16.8157
    17.3016  17.3016  17.6279  17.6279  18.6136  18.6136  18.8009  18.8009
    19.9439  19.9439  20.0861  20.0861  21.0511  21.0511  21.7674  21.7674
    21.9565  21.9565  22.4070  22.4070  24.3025  24.3025  24.8377  24.8377
    24.9234  24.9234  25.3077  25.3077  25.6311  25.6311  26.2623  26.2623
    26.9779  26.9779  27.1469  27.1469  27.2518  27.2518  28.5602  28.5602
    28.7727  28.7727  28.8990  28.8990  29.2078  29.2078  29.5018  29.5018
    30.4112  30.4112  30.7093  30.7093  30.9737  30.9737  31.1795  31.1795
    31.2704  31.2704  32.3269  32.3269  32.4416  32.4416  33.5034  33.5034
    33.8330  33.8330  33.9403  33.9403  34.0366  34.0366  34.3460  34.3460
    35.6792  35.6792  35.7967  35.7967  36.0020  36.0020  36.6085  36.6085
    37.4736  37.4736  38.0310  38.0310  38.2006  38.2006  38.3773  38.3773
    39.3634  39.3634  39.4343  39.4343  39.6075  39.6075  40.4307  40.4307
    40.5630  40.5630  41.3880  41.3880  41.6920  41.6920  42.0477  42.0477
    42.2169  42.2169  42.4996  42.4996  42.6385  42.6385  42.7140  42.7140
    43.7089  43.7089  44.3092  44.3092  44.4367  44.4367  44.8209  44.8209
    45.6658  45.6658  46.1076  46.1076  46.1982  46.1982  46.3082  46.3082
    46.9124  46.9124  46.9530  46.9530  47.2269  47.2270  47.2428  47.2429
    48.2734  48.2734

          k = 0.1667 0.0962 0.0000 (  1941 PWs)   bands (ev):

   -65.4660 -65.4660 -42.1262 -42.1262 -39.5935 -39.5935 -39.4649 -39.4649
   -18.9896 -18.9896 -18.0142 -18.0142 -10.4825 -10.4825  -8.6068  -8.6068
    -8.2562  -8.2562  -7.4369  -7.4369  -7.3174  -7.3174  -6.4098  -6.4098
    -5.6829  -5.6829  -3.0395  -3.0395  -2.7375  -2.7375  -2.6973  -2.6973
    -1.9680  -1.9680   2.5750   2.5750   4.1378   4.1378   4.4986   4.4986
     5.0114   5.0114   5.2087   5.2087   6.2742   6.2742   6.7551   6.7551
     7.2140   7.2140   7.7848   7.7848   9.1241   9.1241   9.8887   9.8887
    10.2804  10.2804  11.4125  11.4125  12.5790  12.5790  13.6269  13.6269
    15.2324  15.2324  15.2613  15.2613  16.2004  16.2004  16.8157  16.8157
    17.3016  17.3016  17.6279  17.6279  18.6136  18.6136  18.8009  18.8009
    19.9439  19.9439  20.0861  20.0861  21.0511  21.0511  21.7674  21.7674
    21.9565  21.9565  22.4069  22.4069  24.3025  24.3025  24.8377  24.8377
    24.9234  24.9234  25.3077  25.3077  25.6311  25.6311  26.2623  26.2623
    26.9779  26.9779  27.1469  27.1469  27.2518  27.2518  28.5602  28.5602
    28.7727  28.7727  28.8990  28.8990  29.2078  29.2078  29.5018  29.5018
    30.4112  30.4112  30.7093  30.7093  30.9737  30.9737  31.1795  31.1795
    31.2705  31.2705  32.3269  32.3269  32.4416  32.4416  33.5034  33.5034
    33.8330  33.8330  33.9403  33.9403  34.0366  34.0366  34.3460  34.3460
    35.6792  35.6792  35.7967  35.7967  36.0021  36.0021  36.6085  36.6085
    37.4736  37.4736  38.0310  38.0310  38.2006  38.2006  38.3773  38.3773
    39.3634  39.3634  39.4343  39.4343  39.6075  39.6075  40.4307  40.4307
    40.5630  40.5630  41.3880  41.3880  41.6920  41.6920  42.0476  42.0476
    42.2170  42.2170  42.4997  42.4997  42.6385  42.6385  42.7139  42.7139
    43.7089  43.7089  44.3092  44.3092  44.4367  44.4367  44.8209  44.8209
    45.6658  45.6658  46.1076  46.1076  46.1982  46.1982  46.3082  46.3082
    46.9124  46.9124  46.9530  46.9530  47.2269  47.2270  47.2428  47.2429
    48.2734  48.2734

          k = 0.1667 0.2887 0.0000 (  1937 PWs)   bands (ev):

   -65.4537 -65.4537 -42.1705 -42.1632 -39.6363 -39.6342 -39.5343 -39.5259
   -18.3340 -18.3182 -17.7225 -17.7212 -10.2457 -10.2207  -9.0564  -9.0461
    -9.0176  -8.9881  -8.5425  -8.5162  -7.2892  -7.2130  -6.4180  -6.3832
    -6.1681  -6.0990  -3.4458  -3.3840  -2.8479  -2.8320  -2.6452  -2.5925
    -1.1707  -1.1376   3.6266   3.6598   4.1088   4.1141   4.2425   4.3335
     4.9725   4.9778   5.1166   5.1191   6.3772   6.4610   6.9749   7.0093
     7.0265   7.0737   7.8470   7.8496   9.2098   9.2488   9.7629   9.7694
    10.6155  10.6606  12.0762  12.0978  14.4358  14.4410  15.0907  15.0939
    15.2207  15.2234  15.5541  15.5543  15.9341  15.9707  16.7837  16.7856
    16.9175  16.9215  17.6938  17.7436  18.0305  18.0350  19.5042  19.5137
    19.6327  19.6403  19.7137  19.7601  21.3076  21.3929  21.4476  21.4682
    22.1350  22.1378  22.4834  22.4861  23.5798  23.5880  23.7344  23.7403
    24.3016  24.3244  24.3721  24.3748  25.4082  25.4592  26.2255  26.2318
    26.2402  26.2474  26.5081  26.5503  27.1540  27.1598  27.2972  27.2973
    27.4113  27.4164  28.6491  28.6507  29.3509  29.4186  29.6706  29.6718
    29.8945  29.9062  29.9082  29.9248  30.7971  30.7979  31.9720  31.9884
    32.1124  32.1168  32.7794  32.7894  33.1594  33.1763  33.3142  33.3208
    33.8982  33.9009  34.3640  34.3809  34.8096  34.8162  35.4595  35.4619
    35.5234  35.5431  36.0343  36.0573  36.5304  36.5441  36.8205  36.8233
    37.4980  37.4981  37.7809  37.7961  38.1047  38.1058  38.6806  38.6877
    38.9675  38.9864  39.6136  39.6622  39.7212  39.7215  39.9904  39.9984
    40.8628  40.8666  41.7474  41.7556  42.2468  42.2550  42.3255  42.3293
    42.5745  42.5855  42.8685  42.8966  43.3492  43.3509  43.6150  43.6163
    44.1206  44.1283  44.3545  44.3655  45.0068  45.0202  45.2492  45.2495
    45.3114  45.3146  45.6967  45.7123  46.5765  46.5895  46.7812  46.7823
    46.8202  46.8295  47.0831  47.0846  47.6784  47.6799  47.8001  47.8099
    48.3501  48.3620

          k = 0.1667 0.4811 0.0000 (  1947 PWs)   bands (ev):

   -65.4683 -65.4683 -42.2192 -42.2044 -39.7157 -39.6962 -39.5706 -39.5689
   -17.5455 -17.5060 -17.3686 -17.3656 -10.6306 -10.6191 -10.2543 -10.2444
    -9.1475  -9.1421  -8.5771  -8.5600  -7.7034  -7.6380  -7.1172  -7.1054
    -5.8676  -5.7648  -3.1083  -3.0887  -2.5276  -2.4248  -2.0188  -2.0140
    -0.9002  -0.8712   1.9460   1.9836   3.8213   3.8484   3.8785   3.8889
     4.9415   4.9455   5.0625   5.0656   5.9709   5.9856   7.7121   7.7162
     8.2259   8.2363   9.0594   9.0652   9.6393   9.6422  10.4074  10.4398
    11.9750  11.9823  13.1342  13.1376  13.1747  13.1794  14.3140  14.3174
    14.7821  14.8235  15.8687  15.9025  16.2312  16.2378  16.9574  16.9628
    17.4038  17.4559  17.9264  17.9283  18.3058  18.3086  19.0257  19.0258
    19.9393  19.9400  19.9991  20.0052  21.1355  21.1539  21.5284  21.5329
    22.0963  22.0983  22.6403  22.6457  22.7986  22.7994  23.6800  23.6839
    23.9521  23.9792  24.1603  24.1607  25.0523  25.0531  25.6971  25.6992
    25.8854  25.8961  26.5771  26.5883  26.8905  26.8970  27.0165  27.0613
    27.3789  27.3806  28.6684  28.6696  28.8570  28.8589  29.3806  29.3806
    29.6500  29.6551  30.6838  30.7516  30.9626  30.9640  31.6070  31.6196
    32.3678  32.3703  32.7434  32.7480  32.9538  32.9547  33.3157  33.3452
    33.7024  33.7065  34.1585  34.1682  34.9893  35.0065  35.1646  35.1665
    35.5690  35.5700  35.7142  35.7142  36.4225  36.4227  36.5559  36.5595
    36.8993  36.8999  37.7349  37.7358  38.5653  38.5665  38.7368  38.7386
    39.4223  39.4419  39.5762  39.5762  39.9231  39.9597  40.2070  40.2091
    40.7739  40.7743  40.9342  40.9366  41.7286  41.7370  42.1725  42.1738
    42.3325  42.3362  43.1243  43.1321  43.2415  43.2477  43.6430  43.6605
    43.8986  43.9032  44.1624  44.1651  44.2575  44.2621  44.6088  44.6161
    45.7255  45.7275  46.4102  46.4351  46.9550  46.9559  47.1289  47.1297
    47.2338  47.2401  47.6567  47.6585  48.2080  48.2096  48.5710  48.5838
    48.9210  48.9216

          k = 0.1667 0.6736 0.0000 (  1947 PWs)   bands (ev):

   -65.4683 -65.4683 -42.2192 -42.2044 -39.7157 -39.6962 -39.5706 -39.5689
   -17.5455 -17.5060 -17.3686 -17.3656 -10.6306 -10.6191 -10.2543 -10.2444
    -9.1475  -9.1421  -8.5771  -8.5600  -7.7034  -7.6380  -7.1172  -7.1054
    -5.8677  -5.7648  -3.1083  -3.0887  -2.5276  -2.4248  -2.0188  -2.0140
    -0.9002  -0.8712   1.9460   1.9836   3.8212   3.8484   3.8785   3.8889
     4.9415   4.9455   5.0625   5.0656   5.9709   5.9856   7.7121   7.7162
     8.2259   8.2363   9.0594   9.0652   9.6393   9.6422  10.4074  10.4398
    11.9750  11.9822  13.1342  13.1376  13.1747  13.1794  14.3140  14.3174
    14.7821  14.8236  15.8687  15.9025  16.2312  16.2379  16.9574  16.9628
    17.4038  17.4559  17.9264  17.9283  18.3058  18.3086  19.0257  19.0258
    19.9393  19.9400  19.9991  20.0052  21.1355  21.1539  21.5283  21.5328
    22.0963  22.0982  22.6403  22.6457  22.7986  22.7994  23.6799  23.6839
    23.9521  23.9792  24.1603  24.1607  25.0523  25.0531  25.6971  25.6992
    25.8854  25.8961  26.5771  26.5883  26.8905  26.8970  27.0165  27.0613
    27.3789  27.3806  28.6685  28.6696  28.8570  28.8589  29.3806  29.3806
    29.6500  29.6551  30.6838  30.7516  30.9626  30.9639  31.6070  31.6196
    32.3678  32.3703  32.7434  32.7479  32.9538  32.9547  33.3157  33.3452
    33.7024  33.7064  34.1585  34.1682  34.9893  35.0065  35.1646  35.1665
    35.5690  35.5700  35.7142  35.7142  36.4225  36.4227  36.5559  36.5595
    36.8993  36.8999  37.7349  37.7358  38.5653  38.5665  38.7368  38.7386
    39.4223  39.4419  39.5762  39.5762  39.9231  39.9597  40.2071  40.2091
    40.7739  40.7743  40.9342  40.9366  41.7286  41.7370  42.1725  42.1738
    42.3325  42.3362  43.1243  43.1321  43.2415  43.2477  43.6430  43.6604
    43.8986  43.9032  44.1624  44.1651  44.2575  44.2622  44.6088  44.6160
    45.7255  45.7275  46.4102  46.4351  46.9550  46.9560  47.1289  47.1297
    47.2338  47.2401  47.6567  47.6585  48.2080  48.2096  48.5710  48.5838
    48.9210  48.9217

          k = 0.1667 0.8660 0.0000 (  1937 PWs)   bands (ev):

   -65.4537 -65.4537 -42.1705 -42.1632 -39.6363 -39.6342 -39.5343 -39.5259
   -18.3340 -18.3182 -17.7225 -17.7212 -10.2457 -10.2207  -9.0564  -9.0461
    -9.0176  -8.9881  -8.5425  -8.5162  -7.2892  -7.2130  -6.4180  -6.3832
    -6.1681  -6.0990  -3.4458  -3.3840  -2.8479  -2.8320  -2.6453  -2.5925
    -1.1707  -1.1376   3.6266   3.6598   4.1088   4.1141   4.2425   4.3335
     4.9725   4.9778   5.1166   5.1191   6.3772   6.4610   6.9749   7.0093
     7.0265   7.0737   7.8470   7.8496   9.2098   9.2488   9.7629   9.7694
    10.6155  10.6605  12.0762  12.0978  14.4358  14.4410  15.0907  15.0939
    15.2207  15.2234  15.5541  15.5543  15.9341  15.9707  16.7837  16.7856
    16.9175  16.9215  17.6938  17.7436  18.0306  18.0350  19.5043  19.5138
    19.6328  19.6403  19.7137  19.7601  21.3076  21.3929  21.4476  21.4682
    22.1350  22.1378  22.4834  22.4861  23.5798  23.5880  23.7344  23.7403
    24.3016  24.3244  24.3721  24.3748  25.4082  25.4592  26.2255  26.2317
    26.2402  26.2474  26.5081  26.5502  27.1540  27.1598  27.2972  27.2973
    27.4113  27.4164  28.6491  28.6507  29.3509  29.4186  29.6706  29.6718
    29.8945  29.9062  29.9081  29.9248  30.7970  30.7979  31.9720  31.9884
    32.1125  32.1168  32.7794  32.7894  33.1594  33.1763  33.3142  33.3208
    33.8982  33.9009  34.3640  34.3809  34.8096  34.8162  35.4595  35.4619
    35.5234  35.5431  36.0343  36.0573  36.5304  36.5441  36.8205  36.8233
    37.4980  37.4980  37.7809  37.7962  38.1047  38.1059  38.6806  38.6877
    38.9675  38.9864  39.6136  39.6622  39.7211  39.7215  39.9905  39.9984
    40.8629  40.8667  41.7474  41.7556  42.2469  42.2551  42.3255  42.3293
    42.5745  42.5855  42.8685  42.8966  43.3492  43.3509  43.6151  43.6163
    44.1206  44.1283  44.3544  44.3654  45.0068  45.0202  45.2492  45.2495
    45.3114  45.3146  45.6968  45.7123  46.5765  46.5895  46.7812  46.7823
    46.8202  46.8295  47.0831  47.0846  47.6785  47.6799  47.8001  47.8099
    48.3501  48.3620

          k = 0.1667 1.0585 0.0000 (  1941 PWs)   bands (ev):

   -65.4660 -65.4660 -42.1262 -42.1262 -39.5935 -39.5935 -39.4649 -39.4649
   -18.9896 -18.9896 -18.0142 -18.0142 -10.4825 -10.4825  -8.6068  -8.6068
    -8.2562  -8.2562  -7.4369  -7.4369  -7.3174  -7.3174  -6.4098  -6.4098
    -5.6829  -5.6829  -3.0395  -3.0395  -2.7375  -2.7375  -2.6973  -2.6973
    -1.9680  -1.9680   2.5750   2.5750   4.1378   4.1378   4.4986   4.4986
     5.0114   5.0114   5.2087   5.2087   6.2742   6.2742   6.7551   6.7551
     7.2140   7.2140   7.7848   7.7848   9.1241   9.1241   9.8886   9.8886
    10.2805  10.2805  11.4125  11.4125  12.5790  12.5790  13.6270  13.6270
    15.2324  15.2324  15.2613  15.2613  16.2003  16.2003  16.8157  16.8157
    17.3016  17.3016  17.6279  17.6279  18.6136  18.6136  18.8009  18.8009
    19.9439  19.9439  20.0861  20.0861  21.0511  21.0511  21.7674  21.7674
    21.9566  21.9566  22.4070  22.4070  24.3025  24.3025  24.8378  24.8378
    24.9234  24.9234  25.3077  25.3077  25.6310  25.6310  26.2623  26.2623
    26.9779  26.9779  27.1469  27.1469  27.2518  27.2518  28.5602  28.5602
    28.7727  28.7727  28.8990  28.8990  29.2078  29.2078  29.5019  29.5019
    30.4112  30.4112  30.7093  30.7093  30.9737  30.9737  31.1795  31.1795
    31.2704  31.2704  32.3269  32.3269  32.4416  32.4416  33.5034  33.5034
    33.8330  33.8330  33.9403  33.9403  34.0366  34.0366  34.3460  34.3460
    35.6792  35.6792  35.7967  35.7967  36.0020  36.0020  36.6085  36.6085
    37.4736  37.4736  38.0310  38.0310  38.2006  38.2006  38.3773  38.3773
    39.3634  39.3634  39.4342  39.4342  39.6075  39.6075  40.4307  40.4307
    40.5629  40.5629  41.3880  41.3880  41.6920  41.6920  42.0477  42.0477
    42.2169  42.2169  42.4996  42.4996  42.6385  42.6385  42.7140  42.7140
    43.7090  43.7090  44.3092  44.3092  44.4367  44.4367  44.8210  44.8210
    45.6658  45.6658  46.1076  46.1076  46.1982  46.1982  46.3082  46.3082
    46.9124  46.9124  46.9529  46.9529  47.2270  47.2270  47.2429  47.2429
    48.2734  48.2734

          k = 0.3333 0.1924 0.0000 (  1963 PWs)   bands (ev):

   -65.5052 -65.5052 -42.1867 -42.1867 -39.6751 -39.6751 -39.5384 -39.5384
   -18.0729 -18.0729 -17.6182 -17.6182 -10.5446 -10.5446  -9.5589  -9.5589
    -9.1792  -9.1792  -8.1346  -8.1346  -7.0263  -7.0263  -6.6128  -6.6128
    -6.3327  -6.3327  -3.1263  -3.1263  -2.9988  -2.9988  -1.8916  -1.8916
    -1.2790  -1.2790   2.6519   2.6519   2.9090   2.9090   3.2821   3.2821
     5.1672   5.1672   5.5827   5.5827   7.1496   7.1496   7.6205   7.6205
     7.7140   7.7140   9.1594   9.1594   9.7016   9.7016  10.0835  10.0835
    10.1609  10.1609  12.3723  12.3723  13.5514  13.5514  13.8774  13.8774
    14.8341  14.8341  15.5923  15.5923  16.2628  16.2628  17.0477  17.0477
    17.2052  17.2052  17.6703  17.6703  19.4710  19.4710  19.5641  19.5641
    19.7671  19.7671  20.7799  20.7799  21.1042  21.1042  21.2221  21.2221
    22.7484  22.7484  22.7589  22.7589  22.9179  22.9179  22.9494  22.9494
    24.0637  24.0637  24.0847  24.0847  24.3219  24.3219  25.0224  25.0224
    26.0733  26.0733  26.1409  26.1409  26.8187  26.8187  26.9124  26.9124
    27.1350  27.1350  29.5300  29.5300  29.6835  29.6835  29.8965  29.8965
    30.3902  30.3902  30.6715  30.6715  30.7148  30.7148  30.9835  30.9835
    32.2832  32.2832  32.6043  32.6043  33.1414  33.1414  33.3504  33.3504
    34.5078  34.5078  34.5772  34.5772  34.9328  34.9328  35.0796  35.0796
    35.9206  35.9206  36.0824  36.0824  36.3713  36.3713  36.4542  36.4542
    37.2998  37.2998  37.4310  37.4310  38.6455  38.6455  38.7806  38.7806
    39.3427  39.3427  39.3585  39.3585  39.5746  39.5746  39.9757  39.9757
    41.4947  41.4947  41.5114  41.5114  41.8227  41.8227  42.6243  42.6243
    42.7944  42.7944  43.0010  43.0010  43.4791  43.4791  43.5833  43.5833
    43.6900  43.6900  44.3375  44.3375  44.4101  44.4101  44.8854  44.8854
    45.5296  45.5296  45.9056  45.9056  46.6154  46.6154  46.6662  46.6662
    47.1737  47.1737  47.3404  47.3404  48.1491  48.1491  48.4540  48.4540
    48.5109  48.5109

          k = 0.3333 0.3849 0.0000 (  1947 PWs)   bands (ev):

   -65.4683 -65.4683 -42.2192 -42.2044 -39.7157 -39.6962 -39.5706 -39.5689
   -17.5455 -17.5060 -17.3686 -17.3656 -10.6306 -10.6191 -10.2543 -10.2444
    -9.1475  -9.1421  -8.5771  -8.5600  -7.7034  -7.6380  -7.1172  -7.1054
    -5.8677  -5.7648  -3.1084  -3.0887  -2.5276  -2.4248  -2.0188  -2.0140
    -0.9002  -0.8712   1.9460   1.9836   3.8213   3.8484   3.8785   3.8889
     4.9415   4.9455   5.0625   5.0656   5.9709   5.9856   7.7121   7.7162
     8.2259   8.2363   9.0594   9.0652   9.6393   9.6422  10.4074  10.4398
    11.9750  11.9823  13.1342  13.1376  13.1747  13.1794  14.3140  14.3174
    14.7821  14.8235  15.8687  15.9025  16.2312  16.2379  16.9574  16.9628
    17.4038  17.4559  17.9264  17.9283  18.3058  18.3086  19.0257  19.0258
    19.9393  19.9400  19.9991  20.0052  21.1355  21.1538  21.5283  21.5329
    22.0963  22.0982  22.6403  22.6457  22.7986  22.7994  23.6800  23.6839
    23.9521  23.9792  24.1603  24.1607  25.0523  25.0532  25.6971  25.6992
    25.8854  25.8961  26.5771  26.5883  26.8905  26.8970  27.0165  27.0613
    27.3790  27.3806  28.6685  28.6696  28.8570  28.8589  29.3806  29.3806
    29.6500  29.6551  30.6838  30.7516  30.9626  30.9640  31.6070  31.6196
    32.3678  32.3703  32.7434  32.7480  32.9538  32.9547  33.3157  33.3452
    33.7024  33.7064  34.1585  34.1682  34.9893  35.0065  35.1646  35.1665
    35.5690  35.5700  35.7142  35.7142  36.4225  36.4227  36.5559  36.5595
    36.8993  36.8999  37.7349  37.7358  38.5653  38.5665  38.7368  38.7386
    39.4223  39.4419  39.5762  39.5762  39.9231  39.9597  40.2070  40.2091
    40.7739  40.7743  40.9342  40.9366  41.7286  41.7370  42.1725  42.1738
    42.3325  42.3362  43.1243  43.1321  43.2415  43.2477  43.6430  43.6605
    43.8986  43.9032  44.1624  44.1651  44.2575  44.2621  44.6088  44.6161
    45.7255  45.7276  46.4102  46.4351  46.9550  46.9560  47.1289  47.1297
    47.2338  47.2401  47.6567  47.6585  48.2080  48.2096  48.5710  48.5838
    48.9210  48.9216

          k = 0.3333 0.5773 0.0000 (  1917 PWs)   bands (ev):

   -65.4017 -65.4017 -42.2297 -42.2073 -39.7125 -39.6654 -39.6159 -39.6007
   -17.2642 -17.2133 -17.2097 -17.2009 -10.7662 -10.7578  -9.9061  -9.8707
    -9.4458  -9.3857  -8.8781  -8.8549  -8.2841  -8.2346  -7.5831  -7.5613
    -5.4091  -5.2751  -3.5429  -3.5393  -2.3665  -2.3369  -1.8167  -1.6879
    -0.4419  -0.3655   2.0275   2.1660   2.5463   2.5496   4.7956   4.8056
     5.7638   5.8195   6.3699   6.3883   7.1527   7.1690   7.2751   7.3353
     7.7057   7.7355   7.7531   7.7721   9.0115   9.0115  10.5742  10.6352
    11.7164  11.7207  12.9552  12.9585  13.2527  13.3424  13.3641  13.4760
    14.1076  14.1134  14.8753  14.8906  15.4482  15.4671  17.7047  17.7193
    19.2675  19.2677  20.1375  20.1641  20.1742  20.1776  20.2132  20.2209
    20.4654  20.4802  20.5126  20.5207  20.5268  20.5545  21.4068  21.4205
    21.6732  21.6738  21.7307  21.7326  22.7928  22.7973  22.8299  22.8911
    23.8367  23.8396  23.9287  23.9298  24.2978  24.3332  24.3694  24.3814
    24.4664  24.4849  26.5237  26.5266  26.6873  26.6904  27.8653  27.8750
    27.9962  28.0388  29.4962  29.5013  29.5915  29.5940  30.2153  30.2290
    30.4207  30.4313  30.8031  30.8045  31.0441  31.0480  31.8227  31.8341
    31.8691  31.8819  31.9107  31.9262  32.0832  32.2396  32.8883  32.8884
    32.9783  33.0412  33.3704  33.3714  34.5656  34.5701  34.9557  34.9610
    35.7768  35.7770  36.2412  36.2422  36.5371  36.5497  36.9694  36.9819
    37.4636  37.4910  37.9724  37.9859  37.9948  37.9955  38.4452  38.4479
    38.7967  38.8061  39.5240  39.5243  39.9493  39.9524  40.8147  40.8209
    40.8318  40.8327  41.0477  41.0509  41.2153  41.2346  41.6538  41.6603
    41.7305  41.7563  41.8310  41.8398  42.6669  42.6669  43.1025  43.1034
    43.5520  43.5542  45.2586  45.2620  45.4135  45.4489  45.9126  45.9312
    45.9363  46.0765  46.5710  46.5813  46.7724  46.7788  46.9861  47.0243
    47.0589  47.0608  47.7347  47.7358  47.7881  47.7901  48.0291  48.0291
    49.0878  49.0927

          k = 0.3333 0.7698 0.0000 (  1947 PWs)   bands (ev):

   -65.4683 -65.4683 -42.2192 -42.2044 -39.7157 -39.6962 -39.5706 -39.5689
   -17.5455 -17.5060 -17.3686 -17.3656 -10.6306 -10.6191 -10.2543 -10.2444
    -9.1475  -9.1421  -8.5771  -8.5601  -7.7034  -7.6380  -7.1172  -7.1053
    -5.8677  -5.7648  -3.1083  -3.0887  -2.5276  -2.4248  -2.0188  -2.0140
    -0.9003  -0.8712   1.9460   1.9836   3.8213   3.8484   3.8785   3.8889
     4.9415   4.9455   5.0625   5.0656   5.9709   5.9856   7.7121   7.7163
     8.2259   8.2363   9.0594   9.0652   9.6393   9.6422  10.4074  10.4398
    11.9750  11.9822  13.1342  13.1376  13.1747  13.1794  14.3140  14.3174
    14.7821  14.8236  15.8688  15.9026  16.2312  16.2379  16.9574  16.9628
    17.4038  17.4559  17.9264  17.9283  18.3058  18.3086  19.0257  19.0258
    19.9393  19.9400  19.9991  20.0052  21.1356  21.1539  21.5283  21.5329
    22.0963  22.0982  22.6403  22.6457  22.7986  22.7994  23.6800  23.6839
    23.9521  23.9792  24.1603  24.1607  25.0523  25.0531  25.6971  25.6992
    25.8854  25.8961  26.5771  26.5883  26.8905  26.8970  27.0165  27.0613
    27.3789  27.3806  28.6684  28.6696  28.8570  28.8589  29.3806  29.3806
    29.6500  29.6551  30.6838  30.7516  30.9626  30.9640  31.6070  31.6196
    32.3678  32.3703  32.7434  32.7479  32.9538  32.9547  33.3157  33.3452
    33.7024  33.7064  34.1585  34.1682  34.9893  35.0065  35.1646  35.1665
    35.5690  35.5700  35.7142  35.7142  36.4225  36.4227  36.5559  36.5595
    36.8993  36.8998  37.7349  37.7358  38.5653  38.5665  38.7368  38.7386
    39.4224  39.4419  39.5762  39.5762  39.9231  39.9597  40.2071  40.2091
    40.7739  40.7743  40.9342  40.9366  41.7286  41.7370  42.1725  42.1738
    42.3325  42.3362  43.1243  43.1321  43.2415  43.2477  43.6430  43.6604
    43.8986  43.9032  44.1624  44.1651  44.2575  44.2622  44.6087  44.6160
    45.7255  45.7275  46.4102  46.4351  46.9550  46.9559  47.1289  47.1297
    47.2338  47.2401  47.6567  47.6585  48.2080  48.2096  48.5710  48.5838
    48.9210  48.9217

          k = 0.3333 0.9623 0.0000 (  1963 PWs)   bands (ev):

   -65.5052 -65.5052 -42.1867 -42.1867 -39.6751 -39.6751 -39.5384 -39.5384
   -18.0729 -18.0729 -17.6182 -17.6182 -10.5446 -10.5446  -9.5588  -9.5588
    -9.1792  -9.1792  -8.1346  -8.1346  -7.0263  -7.0263  -6.6128  -6.6128
    -6.3327  -6.3327  -3.1263  -3.1263  -2.9988  -2.9988  -1.8916  -1.8916
    -1.2790  -1.2790   2.6519   2.6519   2.9090   2.9090   3.2821   3.2821
     5.1672   5.1672   5.5827   5.5827   7.1496   7.1496   7.6205   7.6205
     7.7140   7.7140   9.1594   9.1594   9.7016   9.7016  10.0835  10.0835
    10.1609  10.1609  12.3723  12.3723  13.5514  13.5514  13.8773  13.8773
    14.8341  14.8341  15.5923  15.5923  16.2627  16.2627  17.0477  17.0477
    17.2052  17.2052  17.6703  17.6703  19.4710  19.4710  19.5641  19.5641
    19.7671  19.7671  20.7800  20.7800  21.1042  21.1042  21.2221  21.2221
    22.7484  22.7484  22.7589  22.7589  22.9179  22.9179  22.9495  22.9495
    24.0637  24.0637  24.0847  24.0847  24.3219  24.3219  25.0225  25.0225
    26.0732  26.0732  26.1409  26.1409  26.8188  26.8188  26.9124  26.9124
    27.1350  27.1350  29.5300  29.5300  29.6834  29.6834  29.8965  29.8965
    30.3902  30.3902  30.6715  30.6715  30.7148  30.7148  30.9835  30.9835
    32.2832  32.2832  32.6043  32.6043  33.1414  33.1414  33.3504  33.3504
    34.5078  34.5078  34.5772  34.5772  34.9327  34.9327  35.0796  35.0796
    35.9206  35.9206  36.0824  36.0824  36.3714  36.3714  36.4542  36.4542
    37.2998  37.2998  37.4310  37.4310  38.6455  38.6455  38.7807  38.7807
    39.3428  39.3428  39.3585  39.3585  39.5746  39.5746  39.9757  39.9757
    41.4947  41.4947  41.5114  41.5114  41.8227  41.8227  42.6243  42.6243
    42.7944  42.7944  43.0009  43.0009  43.4791  43.4791  43.5832  43.5832
    43.6900  43.6900  44.3375  44.3375  44.4101  44.4101  44.8855  44.8855
    45.5296  45.5296  45.9057  45.9057  46.6154  46.6154  46.6662  46.6662
    47.1737  47.1737  47.3404  47.3404  48.1491  48.1491  48.4540  48.4540
    48.5109  48.5109

          k = 0.3333 1.1547 0.0000 (  1937 PWs)   bands (ev):

   -65.4537 -65.4537 -42.1705 -42.1632 -39.6363 -39.6342 -39.5343 -39.5259
   -18.3340 -18.3182 -17.7225 -17.7212 -10.2457 -10.2207  -9.0564  -9.0461
    -9.0176  -8.9881  -8.5425  -8.5162  -7.2892  -7.2130  -6.4180  -6.3832
    -6.1681  -6.0990  -3.4458  -3.3840  -2.8479  -2.8320  -2.6453  -2.5925
    -1.1707  -1.1376   3.6266   3.6598   4.1088   4.1141   4.2425   4.3335
     4.9725   4.9778   5.1166   5.1191   6.3772   6.4610   6.9749   7.0093
     7.0265   7.0737   7.8470   7.8496   9.2098   9.2488   9.7629   9.7694
    10.6155  10.6605  12.0762  12.0978  14.4358  14.4410  15.0907  15.0939
    15.2207  15.2234  15.5541  15.5543  15.9341  15.9707  16.7837  16.7856
    16.9175  16.9215  17.6938  17.7436  18.0306  18.0350  19.5043  19.5138
    19.6327  19.6403  19.7137  19.7601  21.3076  21.3929  21.4476  21.4682
    22.1350  22.1378  22.4834  22.4861  23.5798  23.5880  23.7344  23.7403
    24.3016  24.3244  24.3721  24.3748  25.4082  25.4592  26.2255  26.2318
    26.2402  26.2474  26.5081  26.5502  27.1540  27.1598  27.2972  27.2973
    27.4113  27.4164  28.6492  28.6507  29.3509  29.4186  29.6706  29.6718
    29.8945  29.9062  29.9081  29.9248  30.7971  30.7979  31.9720  31.9884
    32.1124  32.1168  32.7794  32.7894  33.1594  33.1763  33.3142  33.3208
    33.8982  33.9009  34.3640  34.3809  34.8096  34.8162  35.4595  35.4619
    35.5234  35.5431  36.0343  36.0573  36.5304  36.5441  36.8205  36.8233
    37.4980  37.4981  37.7809  37.7961  38.1047  38.1058  38.6806  38.6877
    38.9675  38.9864  39.6137  39.6622  39.7212  39.7215  39.9904  39.9984
    40.8628  40.8666  41.7474  41.7556  42.2468  42.2551  42.3255  42.3293
    42.5745  42.5854  42.8685  42.8966  43.3492  43.3509  43.6150  43.6163
    44.1206  44.1283  44.3545  44.3654  45.0068  45.0202  45.2492  45.2495
    45.3114  45.3146  45.6967  45.7123  46.5765  46.5895  46.7812  46.7823
    46.8202  46.8295  47.0831  47.0846  47.6785  47.6799  47.8001  47.8099
    48.3501  48.3620

          k = 0.5000 0.2887 0.0000 (  1964 PWs)   bands (ev):

   -65.5008 -65.5008 -42.2173 -42.2173 -39.7342 -39.7342 -39.5467 -39.5467
   -17.5046 -17.5046 -17.3844 -17.3844 -11.0873 -11.0873 -10.1904 -10.1904
    -9.4109  -9.4109  -8.4530  -8.4530  -7.2974  -7.2974  -6.2432  -6.2432
    -5.9768  -5.9768  -3.0553  -3.0553  -2.5419  -2.5419  -1.4584  -1.4584
    -1.0667  -1.0667   1.1259   1.1259   2.5775   2.5775   3.2161   3.2161
     4.4353   4.4353   4.9845   4.9845   6.0118   6.0118   8.3285   8.3285
     9.0019   9.0019  10.3929  10.3929  10.4040  10.4040  11.8511  11.8511
    12.0747  12.0747  12.7846  12.7846  13.4165  13.4165  14.1063  14.1063
    14.5925  14.5925  15.0064  15.0064  15.6547  15.6547  16.3987  16.3987
    16.4197  16.4197  18.8874  18.8874  18.9379  18.9379  19.5325  19.5325
    19.7909  19.7909  19.8541  19.8541  20.2401  20.2401  20.8904  20.8904
    21.6577  21.6577  22.3546  22.3546  22.4510  22.4510  22.7318  22.7318
    23.8167  23.8167  25.0303  25.0303  25.5741  25.5741  25.5930  25.5930
    26.3073  26.3073  27.1781  27.1781  27.3413  27.3413  27.9861  27.9861
    28.0829  28.0829  28.7134  28.7134  29.1203  29.1203  29.3781  29.3781
    29.5403  29.5403  30.1882  30.1882  30.4439  30.4439  31.7698  31.7698
    31.8376  31.8376  31.8872  31.8872  32.5751  32.5751  33.1666  33.1666
    33.8817  33.8817  34.0144  34.0144  34.3511  34.3511  34.8949  34.8949
    35.0564  35.0564  36.2161  36.2161  36.3625  36.3625  36.4288  36.4288
    37.1991  37.1991  37.2662  37.2662  38.3057  38.3057  39.5075  39.5075
    39.6108  39.6108  40.0992  40.0992  40.1580  40.1580  40.1825  40.1825
    40.5291  40.5291  41.1091  41.1091  41.7370  41.7370  41.9768  41.9768
    42.6565  42.6565  42.7162  42.7162  43.5555  43.5555  44.2494  44.2494
    44.6163  44.6163  45.1487  45.1487  45.2730  45.2730  45.4452  45.4452
    45.7701  45.7701  46.1863  46.1863  46.8760  46.8760  47.2849  47.2849
    47.6120  47.6120  48.1735  48.1735  48.6896  48.6896  48.8515  48.8515
    48.9852  48.9852

          k = 0.5000 0.4811 0.0000 (  1947 PWs)   bands (ev):

   -65.4683 -65.4683 -42.2192 -42.2044 -39.7157 -39.6962 -39.5706 -39.5689
   -17.5455 -17.5060 -17.3686 -17.3656 -10.6306 -10.6191 -10.2543 -10.2444
    -9.1475  -9.1421  -8.5771  -8.5600  -7.7034  -7.6380  -7.1172  -7.1054
    -5.8677  -5.7648  -3.1083  -3.0887  -2.5276  -2.4248  -2.0188  -2.0140
    -0.9002  -0.8712   1.9460   1.9836   3.8213   3.8484   3.8785   3.8889
     4.9415   4.9455   5.0625   5.0656   5.9709   5.9856   7.7121   7.7162
     8.2258   8.2363   9.0594   9.0652   9.6393   9.6422  10.4074  10.4398
    11.9750  11.9822  13.1342  13.1376  13.1747  13.1794  14.3140  14.3174
    14.7821  14.8236  15.8687  15.9025  16.2312  16.2379  16.9574  16.9628
    17.4038  17.4559  17.9264  17.9283  18.3058  18.3086  19.0257  19.0258
    19.9393  19.9400  19.9991  20.0052  21.1355  21.1538  21.5283  21.5328
    22.0963  22.0982  22.6403  22.6457  22.7986  22.7994  23.6800  23.6839
    23.9521  23.9792  24.1603  24.1607  25.0523  25.0532  25.6971  25.6992
    25.8854  25.8961  26.5771  26.5883  26.8905  26.8970  27.0165  27.0613
    27.3789  27.3806  28.6685  28.6696  28.8570  28.8589  29.3806  29.3806
    29.6500  29.6551  30.6838  30.7516  30.9626  30.9639  31.6070  31.6196
    32.3678  32.3703  32.7434  32.7479  32.9538  32.9547  33.3157  33.3452
    33.7024  33.7064  34.1585  34.1682  34.9893  35.0065  35.1646  35.1665
    35.5690  35.5700  35.7142  35.7142  36.4225  36.4227  36.5559  36.5595
    36.8993  36.8998  37.7349  37.7358  38.5653  38.5665  38.7368  38.7386
    39.4223  39.4419  39.5762  39.5762  39.9231  39.9597  40.2071  40.2091
    40.7739  40.7743  40.9342  40.9366  41.7286  41.7370  42.1725  42.1738
    42.3325  42.3362  43.1243  43.1321  43.2415  43.2477  43.6430  43.6605
    43.8986  43.9032  44.1624  44.1651  44.2575  44.2622  44.6088  44.6161
    45.7255  45.7276  46.4102  46.4351  46.9550  46.9560  47.1289  47.1297
    47.2338  47.2401  47.6567  47.6585  48.2080  48.2096  48.5710  48.5838
    48.9210  48.9216

          k = 0.5000 0.6736 0.0000 (  1947 PWs)   bands (ev):

   -65.4683 -65.4683 -42.2192 -42.2044 -39.7157 -39.6962 -39.5706 -39.5689
   -17.5455 -17.5060 -17.3686 -17.3656 -10.6306 -10.6191 -10.2543 -10.2444
    -9.1475  -9.1421  -8.5771  -8.5601  -7.7034  -7.6380  -7.1172  -7.1054
    -5.8676  -5.7648  -3.1083  -3.0887  -2.5276  -2.4248  -2.0188  -2.0140
    -0.9003  -0.8712   1.9460   1.9836   3.8213   3.8484   3.8785   3.8889
     4.9415   4.9455   5.0625   5.0656   5.9709   5.9856   7.7121   7.7163
     8.2259   8.2363   9.0594   9.0652   9.6393   9.6422  10.4074  10.4398
    11.9750  11.9822  13.1342  13.1376  13.1747  13.1794  14.3140  14.3174
    14.7821  14.8235  15.8687  15.9025  16.2312  16.2379  16.9574  16.9628
    17.4038  17.4559  17.9264  17.9283  18.3058  18.3086  19.0257  19.0258
    19.9393  19.9400  19.9991  20.0052  21.1356  21.1539  21.5283  21.5329
    22.0963  22.0983  22.6403  22.6457  22.7986  22.7994  23.6800  23.6839
    23.9521  23.9792  24.1603  24.1607  25.0523  25.0531  25.6971  25.6992
    25.8854  25.8961  26.5771  26.5883  26.8905  26.8970  27.0165  27.0613
    27.3789  27.3806  28.6684  28.6696  28.8570  28.8589  29.3806  29.3806
    29.6500  29.6551  30.6838  30.7516  30.9626  30.9640  31.6070  31.6196
    32.3678  32.3703  32.7434  32.7479  32.9538  32.9547  33.3157  33.3452
    33.7024  33.7064  34.1585  34.1682  34.9893  35.0065  35.1646  35.1665
    35.5690  35.5700  35.7142  35.7142  36.4225  36.4227  36.5559  36.5595
    36.8993  36.8998  37.7349  37.7358  38.5653  38.5665  38.7368  38.7386
    39.4224  39.4419  39.5762  39.5762  39.9231  39.9597  40.2070  40.2091
    40.7739  40.7743  40.9342  40.9366  41.7286  41.7370  42.1725  42.1738
    42.3325  42.3362  43.1243  43.1321  43.2415  43.2477  43.6430  43.6605
    43.8986  43.9032  44.1624  44.1651  44.2575  44.2621  44.6087  44.6160
    45.7255  45.7275  46.4102  46.4351  46.9550  46.9559  47.1289  47.1297
    47.2338  47.2401  47.6567  47.6585  48.2080  48.2096  48.5710  48.5838
    48.9210  48.9217

          k = 0.5000 0.8660 0.0000 (  1964 PWs)   bands (ev):

   -65.5008 -65.5008 -42.2173 -42.2173 -39.7342 -39.7342 -39.5467 -39.5467
   -17.5046 -17.5046 -17.3844 -17.3844 -11.0873 -11.0873 -10.1904 -10.1904
    -9.4109  -9.4109  -8.4530  -8.4530  -7.2974  -7.2974  -6.2432  -6.2432
    -5.9768  -5.9768  -3.0553  -3.0553  -2.5419  -2.5419  -1.4584  -1.4584
    -1.0667  -1.0667   1.1259   1.1259   2.5775   2.5775   3.2161   3.2161
     4.4353   4.4353   4.9845   4.9845   6.0118   6.0118   8.3285   8.3285
     9.0019   9.0019  10.3929  10.3929  10.4040  10.4040  11.8511  11.8511
    12.0747  12.0747  12.7847  12.7847  13.4165  13.4165  14.1063  14.1063
    14.5925  14.5925  15.0064  15.0064  15.6547  15.6547  16.3987  16.3987
    16.4197  16.4197  18.8874  18.8874  18.9379  18.9379  19.5325  19.5325
    19.7909  19.7909  19.8541  19.8541  20.2401  20.2401  20.8904  20.8904
    21.6577  21.6577  22.3546  22.3546  22.4510  22.4510  22.7318  22.7318
    23.8167  23.8167  25.0303  25.0303  25.5741  25.5741  25.5930  25.5930
    26.3073  26.3073  27.1781  27.1781  27.3413  27.3413  27.9861  27.9861
    28.0829  28.0829  28.7134  28.7134  29.1203  29.1203  29.3781  29.3781
    29.5403  29.5403  30.1882  30.1882  30.4439  30.4439  31.7699  31.7699
    31.8377  31.8377  31.8872  31.8872  32.5751  32.5751  33.1667  33.1667
    33.8817  33.8817  34.0144  34.0144  34.3511  34.3511  34.8950  34.8950
    35.0563  35.0563  36.2161  36.2161  36.3625  36.3625  36.4287  36.4287
    37.1991  37.1991  37.2662  37.2662  38.3057  38.3057  39.5075  39.5075
    39.6108  39.6108  40.0992  40.0992  40.1581  40.1581  40.1825  40.1825
    40.5291  40.5291  41.1091  41.1091  41.7369  41.7369  41.9769  41.9769
    42.6565  42.6565  42.7161  42.7161  43.5554  43.5554  44.2494  44.2494
    44.6163  44.6163  45.1486  45.1486  45.2730  45.2730  45.4452  45.4452
    45.7701  45.7701  46.1862  46.1862  46.8760  46.8760  47.2849  47.2849
    47.6120  47.6120  48.1735  48.1735  48.6896  48.6896  48.8515  48.8515
    48.9851  48.9851

          k = 0.5000 1.0585 0.0000 (  1947 PWs)   bands (ev):

   -65.4683 -65.4683 -42.2192 -42.2044 -39.7157 -39.6962 -39.5706 -39.5689
   -17.5455 -17.5060 -17.3686 -17.3656 -10.6306 -10.6191 -10.2543 -10.2444
    -9.1475  -9.1421  -8.5771  -8.5601  -7.7034  -7.6380  -7.1172  -7.1054
    -5.8676  -5.7648  -3.1083  -3.0887  -2.5276  -2.4248  -2.0188  -2.0140
    -0.9003  -0.8712   1.9460   1.9836   3.8213   3.8484   3.8785   3.8889
     4.9415   4.9455   5.0625   5.0656   5.9709   5.9856   7.7121   7.7163
     8.2259   8.2363   9.0594   9.0652   9.6393   9.6422  10.4074  10.4398
    11.9750  11.9822  13.1342  13.1376  13.1747  13.1794  14.3140  14.3174
    14.7821  14.8235  15.8687  15.9025  16.2312  16.2379  16.9574  16.9628
    17.4038  17.4559  17.9264  17.9283  18.3058  18.3086  19.0257  19.0258
    19.9393  19.9400  19.9991  20.0052  21.1356  21.1539  21.5283  21.5329
    22.0963  22.0983  22.6403  22.6457  22.7986  22.7994  23.6800  23.6839
    23.9521  23.9792  24.1603  24.1607  25.0523  25.0531  25.6971  25.6992
    25.8854  25.8961  26.5771  26.5883  26.8905  26.8970  27.0165  27.0613
    27.3789  27.3806  28.6684  28.6696  28.8570  28.8589  29.3806  29.3806
    29.6500  29.6551  30.6838  30.7516  30.9626  30.9640  31.6070  31.6196
    32.3678  32.3703  32.7434  32.7479  32.9538  32.9547  33.3157  33.3452
    33.7024  33.7064  34.1585  34.1682  34.9893  35.0065  35.1646  35.1665
    35.5690  35.5700  35.7142  35.7142  36.4225  36.4227  36.5559  36.5595
    36.8993  36.8998  37.7349  37.7358  38.5653  38.5665  38.7368  38.7386
    39.4224  39.4419  39.5762  39.5762  39.9231  39.9597  40.2070  40.2091
    40.7739  40.7743  40.9342  40.9366  41.7286  41.7370  42.1725  42.1738
    42.3325  42.3362  43.1243  43.1321  43.2415  43.2477  43.6430  43.6605
    43.8986  43.9032  44.1624  44.1651  44.2575  44.2621  44.6087  44.6160
    45.7255  45.7275  46.4102  46.4351  46.9550  46.9559  47.1289  47.1297
    47.2338  47.2401  47.6567  47.6585  48.2080  48.2096  48.5710  48.5838
    48.9210  48.9217

          k = 0.5000 1.2509 0.0000 (  1947 PWs)   bands (ev):

   -65.4683 -65.4683 -42.2192 -42.2044 -39.7157 -39.6962 -39.5706 -39.5689
   -17.5455 -17.5060 -17.3686 -17.3656 -10.6306 -10.6191 -10.2543 -10.2444
    -9.1475  -9.1421  -8.5771  -8.5600  -7.7034  -7.6380  -7.1172  -7.1054
    -5.8677  -5.7648  -3.1083  -3.0887  -2.5276  -2.4248  -2.0188  -2.0140
    -0.9002  -0.8712   1.9460   1.9836   3.8213   3.8484   3.8785   3.8889
     4.9415   4.9455   5.0625   5.0656   5.9709   5.9856   7.7121   7.7162
     8.2258   8.2363   9.0594   9.0652   9.6393   9.6422  10.4074  10.4398
    11.9750  11.9822  13.1342  13.1376  13.1747  13.1794  14.3140  14.3174
    14.7821  14.8236  15.8687  15.9025  16.2312  16.2379  16.9574  16.9628
    17.4038  17.4559  17.9264  17.9283  18.3058  18.3086  19.0257  19.0258
    19.9393  19.9400  19.9991  20.0052  21.1355  21.1538  21.5283  21.5328
    22.0963  22.0982  22.6403  22.6457  22.7986  22.7994  23.6800  23.6839
    23.9521  23.9792  24.1603  24.1607  25.0523  25.0532  25.6971  25.6992
    25.8854  25.8961  26.5771  26.5883  26.8905  26.8970  27.0165  27.0613
    27.3789  27.3806  28.6685  28.6696  28.8570  28.8589  29.3806  29.3806
    29.6500  29.6551  30.6838  30.7516  30.9626  30.9639  31.6070  31.6196
    32.3678  32.3703  32.7434  32.7479  32.9538  32.9547  33.3157  33.3452
    33.7024  33.7064  34.1585  34.1682  34.9893  35.0065  35.1646  35.1665
    35.5690  35.5700  35.7142  35.7142  36.4225  36.4227  36.5559  36.5595
    36.8993  36.8998  37.7349  37.7358  38.5653  38.5665  38.7368  38.7386
    39.4223  39.4419  39.5762  39.5762  39.9231  39.9597  40.2071  40.2091
    40.7739  40.7743  40.9342  40.9366  41.7286  41.7370  42.1725  42.1738
    42.3325  42.3362  43.1243  43.1321  43.2415  43.2477  43.6430  43.6605
    43.8986  43.9032  44.1624  44.1651  44.2575  44.2622  44.6088  44.6161
    45.7255  45.7276  46.4102  46.4351  46.9550  46.9560  47.1289  47.1297
    47.2338  47.2401  47.6567  47.6585  48.2080  48.2096  48.5710  48.5838
    48.9210  48.9216

          k = 0.6667 0.3849 0.0000 (  1963 PWs)   bands (ev):

   -65.5052 -65.5052 -42.1867 -42.1867 -39.6751 -39.6751 -39.5384 -39.5384
   -18.0729 -18.0729 -17.6182 -17.6182 -10.5446 -10.5446  -9.5589  -9.5589
    -9.1792  -9.1792  -8.1346  -8.1346  -7.0263  -7.0263  -6.6128  -6.6128
    -6.3327  -6.3327  -3.1263  -3.1263  -2.9988  -2.9988  -1.8916  -1.8916
    -1.2790  -1.2790   2.6519   2.6519   2.9090   2.9090   3.2821   3.2821
     5.1672   5.1672   5.5827   5.5827   7.1496   7.1496   7.6205   7.6205
     7.7140   7.7140   9.1594   9.1594   9.7016   9.7016  10.0835  10.0835
    10.1609  10.1609  12.3723  12.3723  13.5514  13.5514  13.8774  13.8774
    14.8341  14.8341  15.5923  15.5923  16.2628  16.2628  17.0477  17.0477
    17.2052  17.2052  17.6703  17.6703  19.4710  19.4710  19.5641  19.5641
    19.7671  19.7671  20.7799  20.7799  21.1042  21.1042  21.2221  21.2221
    22.7484  22.7484  22.7589  22.7589  22.9179  22.9179  22.9494  22.9494
    24.0637  24.0637  24.0847  24.0847  24.3219  24.3219  25.0224  25.0224
    26.0733  26.0733  26.1409  26.1409  26.8187  26.8187  26.9124  26.9124
    27.1350  27.1350  29.5300  29.5300  29.6835  29.6835  29.8965  29.8965
    30.3902  30.3902  30.6715  30.6715  30.7148  30.7148  30.9835  30.9835
    32.2832  32.2832  32.6043  32.6043  33.1414  33.1414  33.3504  33.3504
    34.5078  34.5078  34.5772  34.5772  34.9328  34.9328  35.0796  35.0796
    35.9206  35.9206  36.0824  36.0824  36.3713  36.3713  36.4542  36.4542
    37.2998  37.2998  37.4310  37.4310  38.6455  38.6455  38.7806  38.7806
    39.3427  39.3427  39.3585  39.3585  39.5746  39.5746  39.9757  39.9757
    41.4947  41.4947  41.5114  41.5114  41.8227  41.8227  42.6243  42.6243
    42.7944  42.7944  43.0010  43.0010  43.4791  43.4791  43.5833  43.5833
    43.6900  43.6900  44.3375  44.3375  44.4101  44.4101  44.8854  44.8854
    45.5296  45.5296  45.9056  45.9056  46.6154  46.6154  46.6662  46.6662
    47.1737  47.1737  47.3404  47.3404  48.1491  48.1491  48.4540  48.4540
    48.5109  48.5109

          k = 0.6667 0.5773 0.0000 (  1937 PWs)   bands (ev):

   -65.4537 -65.4537 -42.1705 -42.1632 -39.6363 -39.6342 -39.5343 -39.5259
   -18.3340 -18.3182 -17.7225 -17.7212 -10.2457 -10.2207  -9.0564  -9.0461
    -9.0176  -8.9881  -8.5425  -8.5162  -7.2892  -7.2130  -6.4180  -6.3832
    -6.1681  -6.0990  -3.4458  -3.3840  -2.8479  -2.8320  -2.6453  -2.5925
    -1.1707  -1.1376   3.6266   3.6598   4.1088   4.1141   4.2425   4.3335
     4.9725   4.9778   5.1166   5.1191   6.3772   6.4610   6.9749   7.0093
     7.0265   7.0737   7.8470   7.8496   9.2098   9.2488   9.7629   9.7694
    10.6155  10.6605  12.0762  12.0978  14.4358  14.4410  15.0907  15.0939
    15.2207  15.2234  15.5541  15.5543  15.9341  15.9707  16.7837  16.7856
    16.9175  16.9215  17.6938  17.7436  18.0306  18.0350  19.5043  19.5138
    19.6327  19.6403  19.7137  19.7601  21.3076  21.3929  21.4476  21.4682
    22.1350  22.1378  22.4834  22.4861  23.5798  23.5880  23.7344  23.7403
    24.3016  24.3244  24.3721  24.3748  25.4082  25.4592  26.2255  26.2318
    26.2402  26.2474  26.5081  26.5502  27.1540  27.1598  27.2972  27.2973
    27.4113  27.4164  28.6492  28.6507  29.3509  29.4186  29.6706  29.6718
    29.8945  29.9062  29.9081  29.9248  30.7971  30.7979  31.9720  31.9884
    32.1124  32.1168  32.7794  32.7894  33.1594  33.1763  33.3142  33.3208
    33.8982  33.9009  34.3640  34.3809  34.8096  34.8162  35.4595  35.4619
    35.5234  35.5431  36.0343  36.0573  36.5304  36.5441  36.8205  36.8233
    37.4980  37.4981  37.7809  37.7961  38.1047  38.1058  38.6806  38.6877
    38.9675  38.9864  39.6137  39.6622  39.7212  39.7215  39.9904  39.9984
    40.8628  40.8666  41.7474  41.7556  42.2468  42.2551  42.3255  42.3293
    42.5745  42.5854  42.8685  42.8966  43.3492  43.3509  43.6150  43.6163
    44.1206  44.1283  44.3545  44.3654  45.0068  45.0202  45.2492  45.2495
    45.3114  45.3146  45.6967  45.7123  46.5765  46.5895  46.7812  46.7823
    46.8202  46.8295  47.0831  47.0846  47.6785  47.6799  47.8001  47.8099
    48.3501  48.3620

          k = 0.6667 0.7698 0.0000 (  1963 PWs)   bands (ev):

   -65.5052 -65.5052 -42.1867 -42.1867 -39.6751 -39.6751 -39.5384 -39.5384
   -18.0729 -18.0729 -17.6182 -17.6182 -10.5446 -10.5446  -9.5588  -9.5588
    -9.1792  -9.1792  -8.1346  -8.1346  -7.0263  -7.0263  -6.6128  -6.6128
    -6.3327  -6.3327  -3.1263  -3.1263  -2.9988  -2.9988  -1.8916  -1.8916
    -1.2790  -1.2790   2.6519   2.6519   2.9090   2.9090   3.2821   3.2821
     5.1672   5.1672   5.5827   5.5827   7.1496   7.1496   7.6205   7.6205
     7.7140   7.7140   9.1594   9.1594   9.7016   9.7016  10.0835  10.0835
    10.1609  10.1609  12.3723  12.3723  13.5514  13.5514  13.8773  13.8773
    14.8341  14.8341  15.5923  15.5923  16.2627  16.2627  17.0477  17.0477
    17.2052  17.2052  17.6703  17.6703  19.4710  19.4710  19.5641  19.5641
    19.7671  19.7671  20.7800  20.7800  21.1042  21.1042  21.2221  21.2221
    22.7484  22.7484  22.7589  22.7589  22.9179  22.9179  22.9495  22.9495
    24.0637  24.0637  24.0847  24.0847  24.3219  24.3219  25.0225  25.0225
    26.0732  26.0732  26.1409  26.1409  26.8188  26.8188  26.9124  26.9124
    27.1350  27.1350  29.5300  29.5300  29.6834  29.6834  29.8965  29.8965
    30.3902  30.3902  30.6715  30.6715  30.7148  30.7148  30.9835  30.9835
    32.2832  32.2832  32.6043  32.6043  33.1414  33.1414  33.3504  33.3504
    34.5078  34.5078  34.5772  34.5772  34.9327  34.9327  35.0796  35.0796
    35.9206  35.9206  36.0824  36.0824  36.3714  36.3714  36.4542  36.4542
    37.2998  37.2998  37.4310  37.4310  38.6455  38.6455  38.7807  38.7807
    39.3428  39.3428  39.3585  39.3585  39.5746  39.5746  39.9757  39.9757
    41.4947  41.4947  41.5114  41.5114  41.8227  41.8227  42.6243  42.6243
    42.7944  42.7944  43.0009  43.0009  43.4791  43.4791  43.5832  43.5832
    43.6900  43.6900  44.3375  44.3375  44.4101  44.4101  44.8855  44.8855
    45.5296  45.5296  45.9057  45.9057  46.6154  46.6154  46.6662  46.6662
    47.1737  47.1737  47.3404  47.3404  48.1491  48.1491  48.4540  48.4540
    48.5109  48.5109

          k = 0.6667 0.9622 0.0000 (  1947 PWs)   bands (ev):

   -65.4683 -65.4683 -42.2192 -42.2044 -39.7157 -39.6962 -39.5706 -39.5689
   -17.5455 -17.5060 -17.3686 -17.3656 -10.6306 -10.6191 -10.2543 -10.2444
    -9.1475  -9.1421  -8.5771  -8.5601  -7.7034  -7.6380  -7.1172  -7.1053
    -5.8677  -5.7648  -3.1083  -3.0887  -2.5276  -2.4248  -2.0188  -2.0140
    -0.9003  -0.8712   1.9460   1.9836   3.8213   3.8484   3.8785   3.8889
     4.9415   4.9455   5.0625   5.0656   5.9709   5.9856   7.7121   7.7163
     8.2259   8.2363   9.0594   9.0652   9.6393   9.6422  10.4074  10.4398
    11.9750  11.9822  13.1342  13.1376  13.1747  13.1794  14.3140  14.3174
    14.7821  14.8236  15.8688  15.9026  16.2312  16.2379  16.9574  16.9628
    17.4038  17.4559  17.9264  17.9283  18.3058  18.3086  19.0257  19.0258
    19.9393  19.9400  19.9991  20.0052  21.1356  21.1539  21.5283  21.5329
    22.0963  22.0982  22.6403  22.6457  22.7986  22.7994  23.6800  23.6839
    23.9521  23.9792  24.1603  24.1607  25.0523  25.0531  25.6971  25.6992
    25.8854  25.8961  26.5771  26.5883  26.8905  26.8970  27.0165  27.0613
    27.3789  27.3806  28.6684  28.6696  28.8570  28.8589  29.3806  29.3806
    29.6500  29.6551  30.6838  30.7516  30.9626  30.9640  31.6070  31.6196
    32.3678  32.3703  32.7434  32.7479  32.9538  32.9547  33.3157  33.3452
    33.7024  33.7064  34.1585  34.1682  34.9893  35.0065  35.1646  35.1665
    35.5690  35.5700  35.7142  35.7142  36.4225  36.4227  36.5559  36.5595
    36.8993  36.8998  37.7349  37.7358  38.5653  38.5665  38.7368  38.7386
    39.4224  39.4419  39.5762  39.5762  39.9231  39.9597  40.2071  40.2091
    40.7739  40.7743  40.9342  40.9366  41.7286  41.7370  42.1725  42.1738
    42.3325  42.3362  43.1243  43.1321  43.2415  43.2477  43.6430  43.6604
    43.8986  43.9032  44.1624  44.1651  44.2575  44.2622  44.6087  44.6160
    45.7255  45.7275  46.4102  46.4351  46.9550  46.9559  47.1289  47.1297
    47.2338  47.2401  47.6567  47.6585  48.2080  48.2096  48.5710  48.5838
    48.9210  48.9217

          k = 0.6667 1.1547 0.0000 (  1917 PWs)   bands (ev):

   -65.4017 -65.4017 -42.2297 -42.2073 -39.7125 -39.6654 -39.6159 -39.6007
   -17.2642 -17.2133 -17.2097 -17.2009 -10.7662 -10.7578  -9.9061  -9.8707
    -9.4458  -9.3857  -8.8781  -8.8549  -8.2841  -8.2346  -7.5831  -7.5613
    -5.4091  -5.2751  -3.5429  -3.5393  -2.3665  -2.3369  -1.8167  -1.6879
    -0.4419  -0.3655   2.0275   2.1660   2.5463   2.5496   4.7956   4.8056
     5.7638   5.8195   6.3699   6.3883   7.1527   7.1690   7.2751   7.3353
     7.7057   7.7355   7.7531   7.7721   9.0115   9.0115  10.5742  10.6352
    11.7164  11.7207  12.9552  12.9585  13.2527  13.3424  13.3641  13.4760
    14.1076  14.1134  14.8753  14.8906  15.4482  15.4671  17.7047  17.7193
    19.2675  19.2677  20.1375  20.1641  20.1742  20.1776  20.2132  20.2209
    20.4654  20.4802  20.5126  20.5207  20.5268  20.5545  21.4068  21.4205
    21.6732  21.6738  21.7307  21.7326  22.7928  22.7973  22.8299  22.8911
    23.8367  23.8396  23.9287  23.9298  24.2978  24.3332  24.3694  24.3814
    24.4664  24.4849  26.5237  26.5266  26.6873  26.6904  27.8653  27.8750
    27.9962  28.0388  29.4962  29.5013  29.5915  29.5940  30.2153  30.2290
    30.4207  30.4313  30.8031  30.8045  31.0441  31.0480  31.8227  31.8341
    31.8691  31.8819  31.9107  31.9262  32.0832  32.2396  32.8883  32.8884
    32.9783  33.0412  33.3704  33.3714  34.5656  34.5701  34.9557  34.9610
    35.7768  35.7770  36.2412  36.2422  36.5371  36.5497  36.9694  36.9819
    37.4636  37.4910  37.9724  37.9859  37.9948  37.9955  38.4452  38.4479
    38.7967  38.8061  39.5240  39.5243  39.9493  39.9524  40.8147  40.8209
    40.8318  40.8327  41.0477  41.0509  41.2153  41.2346  41.6538  41.6603
    41.7305  41.7563  41.8310  41.8398  42.6669  42.6669  43.1025  43.1034
    43.5520  43.5542  45.2586  45.2620  45.4135  45.4489  45.9126  45.9312
    45.9363  46.0765  46.5710  46.5813  46.7724  46.7788  46.9861  47.0243
    47.0589  47.0608  47.7347  47.7358  47.7881  47.7901  48.0291  48.0291
    49.0878  49.0927

          k = 0.6667 1.3471 0.0000 (  1947 PWs)   bands (ev):

   -65.4683 -65.4683 -42.2192 -42.2044 -39.7157 -39.6962 -39.5706 -39.5689
   -17.5455 -17.5060 -17.3686 -17.3656 -10.6306 -10.6191 -10.2543 -10.2444
    -9.1475  -9.1421  -8.5771  -8.5600  -7.7034  -7.6380  -7.1172  -7.1054
    -5.8677  -5.7648  -3.1084  -3.0887  -2.5276  -2.4248  -2.0188  -2.0140
    -0.9002  -0.8712   1.9460   1.9836   3.8213   3.8484   3.8785   3.8889
     4.9415   4.9455   5.0625   5.0656   5.9709   5.9856   7.7121   7.7162
     8.2259   8.2363   9.0594   9.0652   9.6393   9.6422  10.4074  10.4398
    11.9750  11.9823  13.1342  13.1376  13.1747  13.1794  14.3140  14.3174
    14.7821  14.8235  15.8687  15.9025  16.2312  16.2379  16.9574  16.9628
    17.4038  17.4559  17.9264  17.9283  18.3058  18.3086  19.0257  19.0258
    19.9393  19.9400  19.9991  20.0052  21.1355  21.1538  21.5283  21.5329
    22.0963  22.0982  22.6403  22.6457  22.7986  22.7994  23.6800  23.6839
    23.9521  23.9792  24.1603  24.1607  25.0523  25.0532  25.6971  25.6992
    25.8854  25.8961  26.5771  26.5883  26.8905  26.8970  27.0165  27.0613
    27.3790  27.3806  28.6685  28.6696  28.8570  28.8589  29.3806  29.3806
    29.6500  29.6551  30.6838  30.7516  30.9626  30.9640  31.6070  31.6196
    32.3678  32.3703  32.7434  32.7480  32.9538  32.9547  33.3157  33.3452
    33.7024  33.7064  34.1585  34.1682  34.9893  35.0065  35.1646  35.1665
    35.5690  35.5700  35.7142  35.7142  36.4225  36.4227  36.5559  36.5595
    36.8993  36.8999  37.7349  37.7358  38.5653  38.5665  38.7368  38.7386
    39.4223  39.4419  39.5762  39.5762  39.9231  39.9597  40.2070  40.2091
    40.7739  40.7743  40.9342  40.9366  41.7286  41.7370  42.1725  42.1738
    42.3325  42.3362  43.1243  43.1321  43.2415  43.2477  43.6430  43.6605
    43.8986  43.9032  44.1624  44.1651  44.2575  44.2621  44.6088  44.6161
    45.7255  45.7276  46.4102  46.4351  46.9550  46.9560  47.1289  47.1297
    47.2338  47.2401  47.6567  47.6585  48.2080  48.2096  48.5710  48.5838
    48.9210  48.9216

          k = 0.8333 0.4811 0.0000 (  1941 PWs)   bands (ev):

   -65.4660 -65.4660 -42.1262 -42.1262 -39.5935 -39.5935 -39.4649 -39.4649
   -18.9896 -18.9896 -18.0142 -18.0142 -10.4825 -10.4825  -8.6068  -8.6068
    -8.2562  -8.2562  -7.4369  -7.4369  -7.3174  -7.3174  -6.4098  -6.4098
    -5.6829  -5.6829  -3.0395  -3.0395  -2.7375  -2.7375  -2.6973  -2.6973
    -1.9680  -1.9680   2.5750   2.5750   4.1378   4.1378   4.4986   4.4986
     5.0114   5.0114   5.2087   5.2087   6.2742   6.2742   6.7551   6.7551
     7.2140   7.2140   7.7848   7.7848   9.1241   9.1241   9.8887   9.8887
    10.2804  10.2804  11.4125  11.4125  12.5790  12.5790  13.6269  13.6269
    15.2324  15.2324  15.2613  15.2613  16.2004  16.2004  16.8157  16.8157
    17.3016  17.3016  17.6279  17.6279  18.6136  18.6136  18.8009  18.8009
    19.9439  19.9439  20.0861  20.0861  21.0511  21.0511  21.7674  21.7674
    21.9565  21.9565  22.4069  22.4069  24.3025  24.3025  24.8377  24.8377
    24.9234  24.9234  25.3077  25.3077  25.6311  25.6311  26.2623  26.2623
    26.9779  26.9779  27.1469  27.1469  27.2518  27.2518  28.5602  28.5602
    28.7727  28.7727  28.8990  28.8990  29.2078  29.2078  29.5018  29.5018
    30.4112  30.4112  30.7093  30.7093  30.9737  30.9737  31.1795  31.1795
    31.2705  31.2705  32.3269  32.3269  32.4416  32.4416  33.5034  33.5034
    33.8330  33.8330  33.9403  33.9403  34.0366  34.0366  34.3460  34.3460
    35.6792  35.6792  35.7967  35.7967  36.0021  36.0021  36.6085  36.6085
    37.4736  37.4736  38.0310  38.0310  38.2006  38.2006  38.3773  38.3773
    39.3634  39.3634  39.4343  39.4343  39.6075  39.6075  40.4307  40.4307
    40.5630  40.5630  41.3880  41.3880  41.6920  41.6920  42.0476  42.0476
    42.2170  42.2170  42.4997  42.4997  42.6385  42.6385  42.7139  42.7139
    43.7089  43.7089  44.3092  44.3092  44.4367  44.4367  44.8209  44.8209
    45.6658  45.6658  46.1076  46.1076  46.1982  46.1982  46.3082  46.3082
    46.9124  46.9124  46.9530  46.9530  47.2269  47.2270  47.2428  47.2429
    48.2734  48.2734

          k = 0.8333 0.6736 0.0000 (  1941 PWs)   bands (ev):

   -65.4660 -65.4660 -42.1262 -42.1262 -39.5935 -39.5935 -39.4649 -39.4649
   -18.9896 -18.9896 -18.0142 -18.0142 -10.4825 -10.4825  -8.6068  -8.6068
    -8.2562  -8.2562  -7.4369  -7.4369  -7.3174  -7.3174  -6.4098  -6.4098
    -5.6829  -5.6829  -3.0395  -3.0395  -2.7375  -2.7375  -2.6973  -2.6973
    -1.9680  -1.9680   2.5750   2.5750   4.1378   4.1378   4.4986   4.4986
     5.0114   5.0114   5.2087   5.2087   6.2742   6.2742   6.7551   6.7551
     7.2140   7.2140   7.7848   7.7848   9.1241   9.1241   9.8886   9.8886
    10.2805  10.2805  11.4125  11.4125  12.5790  12.5790  13.6270  13.6270
    15.2324  15.2324  15.2613  15.2613  16.2003  16.2003  16.8157  16.8157
    17.3016  17.3016  17.6279  17.6279  18.6136  18.6136  18.8009  18.8009
    19.9439  19.9439  20.0861  20.0861  21.0511  21.0511  21.7674  21.7674
    21.9566  21.9566  22.4070  22.4070  24.3025  24.3025  24.8378  24.8378
    24.9234  24.9234  25.3077  25.3077  25.6310  25.6310  26.2623  26.2623
    26.9779  26.9779  27.1469  27.1469  27.2518  27.2518  28.5602  28.5602
    28.7727  28.7727  28.8990  28.8990  29.2078  29.2078  29.5019  29.5019
    30.4112  30.4112  30.7093  30.7093  30.9737  30.9737  31.1795  31.1795
    31.2704  31.2704  32.3269  32.3269  32.4416  32.4416  33.5034  33.5034
    33.8330  33.8330  33.9403  33.9403  34.0366  34.0366  34.3460  34.3460
    35.6792  35.6792  35.7967  35.7967  36.0020  36.0020  36.6085  36.6085
    37.4736  37.4736  38.0310  38.0310  38.2006  38.2006  38.3773  38.3773
    39.3634  39.3634  39.4342  39.4342  39.6075  39.6075  40.4307  40.4307
    40.5629  40.5629  41.3880  41.3880  41.6920  41.6920  42.0477  42.0477
    42.2169  42.2169  42.4996  42.4996  42.6385  42.6385  42.7140  42.7140
    43.7090  43.7090  44.3092  44.3092  44.4367  44.4367  44.8210  44.8210
    45.6658  45.6658  46.1076  46.1076  46.1982  46.1982  46.3082  46.3082
    46.9124  46.9124  46.9529  46.9529  47.2270  47.2270  47.2429  47.2429
    48.2734  48.2734

          k = 0.8333 0.8660 0.0000 (  1937 PWs)   bands (ev):

   -65.4537 -65.4537 -42.1705 -42.1632 -39.6363 -39.6342 -39.5343 -39.5259
   -18.3340 -18.3182 -17.7225 -17.7212 -10.2457 -10.2207  -9.0564  -9.0461
    -9.0176  -8.9881  -8.5425  -8.5162  -7.2892  -7.2130  -6.4180  -6.3832
    -6.1681  -6.0990  -3.4458  -3.3840  -2.8479  -2.8320  -2.6453  -2.5925
    -1.1707  -1.1376   3.6266   3.6598   4.1088   4.1141   4.2425   4.3335
     4.9725   4.9778   5.1166   5.1191   6.3772   6.4610   6.9749   7.0093
     7.0265   7.0737   7.8470   7.8496   9.2098   9.2488   9.7629   9.7694
    10.6155  10.6605  12.0762  12.0978  14.4358  14.4410  15.0907  15.0939
    15.2207  15.2234  15.5541  15.5543  15.9341  15.9707  16.7837  16.7856
    16.9175  16.9215  17.6938  17.7436  18.0306  18.0350  19.5043  19.5138
    19.6328  19.6403  19.7137  19.7601  21.3076  21.3929  21.4476  21.4682
    22.1350  22.1378  22.4834  22.4861  23.5798  23.5880  23.7344  23.7403
    24.3016  24.3244  24.3721  24.3748  25.4082  25.4592  26.2255  26.2317
    26.2402  26.2474  26.5081  26.5502  27.1540  27.1598  27.2972  27.2973
    27.4113  27.4164  28.6491  28.6507  29.3509  29.4186  29.6706  29.6718
    29.8945  29.9062  29.9081  29.9248  30.7970  30.7979  31.9720  31.9884
    32.1125  32.1168  32.7794  32.7894  33.1594  33.1763  33.3142  33.3208
    33.8982  33.9009  34.3640  34.3809  34.8096  34.8162  35.4595  35.4619
    35.5234  35.5431  36.0343  36.0573  36.5304  36.5441  36.8205  36.8233
    37.4980  37.4980  37.7809  37.7962  38.1047  38.1059  38.6806  38.6877
    38.9675  38.9864  39.6136  39.6622  39.7211  39.7215  39.9905  39.9984
    40.8629  40.8667  41.7474  41.7556  42.2469  42.2551  42.3255  42.3293
    42.5745  42.5855  42.8685  42.8966  43.3492  43.3509  43.6151  43.6163
    44.1206  44.1283  44.3544  44.3654  45.0068  45.0202  45.2492  45.2495
    45.3114  45.3146  45.6968  45.7123  46.5765  46.5895  46.7812  46.7823
    46.8202  46.8295  47.0831  47.0846  47.6785  47.6799  47.8001  47.8099
    48.3501  48.3620

          k = 0.8333 1.0585 0.0000 (  1947 PWs)   bands (ev):

   -65.4683 -65.4683 -42.2192 -42.2044 -39.7157 -39.6962 -39.5706 -39.5689
   -17.5455 -17.5060 -17.3686 -17.3656 -10.6306 -10.6191 -10.2543 -10.2444
    -9.1475  -9.1421  -8.5771  -8.5600  -7.7034  -7.6380  -7.1172  -7.1054
    -5.8677  -5.7648  -3.1083  -3.0887  -2.5276  -2.4248  -2.0188  -2.0140
    -0.9002  -0.8712   1.9460   1.9836   3.8212   3.8484   3.8785   3.8889
     4.9415   4.9455   5.0625   5.0656   5.9709   5.9856   7.7121   7.7162
     8.2259   8.2363   9.0594   9.0652   9.6393   9.6422  10.4074  10.4398
    11.9750  11.9822  13.1342  13.1376  13.1747  13.1794  14.3140  14.3174
    14.7821  14.8236  15.8687  15.9025  16.2312  16.2379  16.9574  16.9628
    17.4038  17.4559  17.9264  17.9283  18.3058  18.3086  19.0257  19.0258
    19.9393  19.9400  19.9991  20.0052  21.1355  21.1539  21.5283  21.5328
    22.0963  22.0982  22.6403  22.6457  22.7986  22.7994  23.6799  23.6839
    23.9521  23.9792  24.1603  24.1607  25.0523  25.0531  25.6971  25.6992
    25.8854  25.8961  26.5771  26.5883  26.8905  26.8970  27.0165  27.0613
    27.3789  27.3806  28.6685  28.6696  28.8570  28.8589  29.3806  29.3806
    29.6500  29.6551  30.6838  30.7516  30.9626  30.9639  31.6070  31.6196
    32.3678  32.3703  32.7434  32.7479  32.9538  32.9547  33.3157  33.3452
    33.7024  33.7064  34.1585  34.1682  34.9893  35.0065  35.1646  35.1665
    35.5690  35.5700  35.7142  35.7142  36.4225  36.4227  36.5559  36.5595
    36.8993  36.8999  37.7349  37.7358  38.5653  38.5665  38.7368  38.7386
    39.4223  39.4419  39.5762  39.5762  39.9231  39.9597  40.2071  40.2091
    40.7739  40.7743  40.9342  40.9366  41.7286  41.7370  42.1725  42.1738
    42.3325  42.3362  43.1243  43.1321  43.2415  43.2477  43.6430  43.6604
    43.8986  43.9032  44.1624  44.1651  44.2575  44.2622  44.6088  44.6160
    45.7255  45.7275  46.4102  46.4351  46.9550  46.9560  47.1289  47.1297
    47.2338  47.2401  47.6567  47.6585  48.2080  48.2096  48.5710  48.5838
    48.9210  48.9217

          k = 0.8333 1.2509 0.0000 (  1947 PWs)   bands (ev):

   -65.4683 -65.4683 -42.2192 -42.2044 -39.7157 -39.6962 -39.5706 -39.5689
   -17.5455 -17.5060 -17.3686 -17.3656 -10.6306 -10.6191 -10.2543 -10.2444
    -9.1475  -9.1421  -8.5771  -8.5600  -7.7034  -7.6380  -7.1172  -7.1054
    -5.8676  -5.7648  -3.1083  -3.0887  -2.5276  -2.4248  -2.0188  -2.0140
    -0.9002  -0.8712   1.9460   1.9836   3.8213   3.8484   3.8785   3.8889
     4.9415   4.9455   5.0625   5.0656   5.9709   5.9856   7.7121   7.7162
     8.2259   8.2363   9.0594   9.0652   9.6393   9.6422  10.4074  10.4398
    11.9750  11.9823  13.1342  13.1376  13.1747  13.1794  14.3140  14.3174
    14.7821  14.8235  15.8687  15.9025  16.2312  16.2378  16.9574  16.9628
    17.4038  17.4559  17.9264  17.9283  18.3058  18.3086  19.0257  19.0258
    19.9393  19.9400  19.9991  20.0052  21.1355  21.1539  21.5284  21.5329
    22.0963  22.0983  22.6403  22.6457  22.7986  22.7994  23.6800  23.6839
    23.9521  23.9792  24.1603  24.1607  25.0523  25.0531  25.6971  25.6992
    25.8854  25.8961  26.5771  26.5883  26.8905  26.8970  27.0165  27.0613
    27.3789  27.3806  28.6684  28.6696  28.8570  28.8589  29.3806  29.3806
    29.6500  29.6551  30.6838  30.7516  30.9626  30.9640  31.6070  31.6196
    32.3678  32.3703  32.7434  32.7480  32.9538  32.9547  33.3157  33.3452
    33.7024  33.7065  34.1585  34.1682  34.9893  35.0065  35.1646  35.1665
    35.5690  35.5700  35.7142  35.7142  36.4225  36.4227  36.5559  36.5595
    36.8993  36.8999  37.7349  37.7358  38.5653  38.5665  38.7368  38.7386
    39.4223  39.4419  39.5762  39.5762  39.9231  39.9597  40.2070  40.2091
    40.7739  40.7743  40.9342  40.9366  41.7286  41.7370  42.1725  42.1738
    42.3325  42.3362  43.1243  43.1321  43.2415  43.2477  43.6430  43.6605
    43.8986  43.9032  44.1624  44.1651  44.2575  44.2621  44.6088  44.6161
    45.7255  45.7275  46.4102  46.4351  46.9550  46.9559  47.1289  47.1297
    47.2338  47.2401  47.6567  47.6585  48.2080  48.2096  48.5710  48.5838
    48.9210  48.9216

          k = 0.8333 1.4434 0.0000 (  1937 PWs)   bands (ev):

   -65.4537 -65.4537 -42.1705 -42.1632 -39.6363 -39.6342 -39.5343 -39.5259
   -18.3340 -18.3182 -17.7225 -17.7212 -10.2457 -10.2207  -9.0564  -9.0461
    -9.0176  -8.9881  -8.5425  -8.5162  -7.2892  -7.2130  -6.4180  -6.3832
    -6.1681  -6.0990  -3.4458  -3.3840  -2.8479  -2.8320  -2.6452  -2.5925
    -1.1707  -1.1376   3.6266   3.6598   4.1088   4.1141   4.2425   4.3335
     4.9725   4.9778   5.1166   5.1191   6.3772   6.4610   6.9749   7.0093
     7.0265   7.0737   7.8470   7.8496   9.2098   9.2488   9.7629   9.7694
    10.6155  10.6606  12.0762  12.0978  14.4358  14.4410  15.0907  15.0939
    15.2207  15.2234  15.5541  15.5543  15.9341  15.9707  16.7837  16.7856
    16.9175  16.9215  17.6938  17.7436  18.0305  18.0350  19.5042  19.5137
    19.6327  19.6403  19.7137  19.7601  21.3076  21.3929  21.4476  21.4682
    22.1350  22.1378  22.4834  22.4861  23.5798  23.5880  23.7344  23.7403
    24.3016  24.3244  24.3721  24.3748  25.4082  25.4592  26.2255  26.2318
    26.2402  26.2474  26.5081  26.5503  27.1540  27.1598  27.2972  27.2973
    27.4113  27.4164  28.6491  28.6507  29.3509  29.4186  29.6706  29.6718
    29.8945  29.9062  29.9082  29.9248  30.7971  30.7979  31.9720  31.9884
    32.1124  32.1168  32.7794  32.7894  33.1594  33.1763  33.3142  33.3208
    33.8982  33.9009  34.3640  34.3809  34.8096  34.8162  35.4595  35.4619
    35.5234  35.5431  36.0343  36.0573  36.5304  36.5441  36.8205  36.8233
    37.4980  37.4981  37.7809  37.7961  38.1047  38.1058  38.6806  38.6877
    38.9675  38.9864  39.6136  39.6622  39.7212  39.7215  39.9904  39.9984
    40.8628  40.8666  41.7474  41.7556  42.2468  42.2550  42.3255  42.3293
    42.5745  42.5855  42.8685  42.8966  43.3492  43.3509  43.6150  43.6163
    44.1206  44.1283  44.3545  44.3655  45.0068  45.0202  45.2492  45.2495
    45.3114  45.3146  45.6967  45.7123  46.5765  46.5895  46.7812  46.7823
    46.8202  46.8295  47.0831  47.0846  47.6784  47.6799  47.8001  47.8099
    48.3501  48.3620

     highest occupied, lowest unoccupied level (ev):    -5.2751   -3.5429

     Writing all to output data dir ./MoS2.save/ :
     XML data file, pseudopotentials, collected wavefunctions
 
     init_run     :      0.18s CPU      0.31s WALL (       1 calls)
     electrons    :      4.43s CPU      5.25s WALL (       1 calls)

     Called by init_run:
     wfcinit      :      0.00s CPU      0.00s WALL (       1 calls)
     potinit      :      0.07s CPU      0.13s WALL (       1 calls)
     hinit0       :      0.10s CPU      0.11s WALL (       1 calls)

     Called by electrons:
     c_bands      :      4.42s CPU      5.18s WALL (       1 calls)
     v_of_rho     :      0.01s CPU      0.01s WALL (       1 calls)

     Called by c_bands:
     init_us_2    :      0.00s CPU      0.00s WALL (       3 calls)
     cegterg      :      3.87s CPU      3.95s WALL (       7 calls)

     Called by *egterg:
     cdiaghg      :      1.22s CPU      1.28s WALL (     118 calls)
                                        1.28s GPU  (     118 calls)
     h_psi        :      2.62s CPU      2.71s WALL (     125 calls)
     g_psi        :      0.00s CPU      0.00s WALL (     115 calls)

     Called by h_psi:
     h_psi:calbec :      0.04s CPU      0.07s WALL (     125 calls)
     vloc_psi     :      2.56s CPU      2.62s WALL (     125 calls)
                                        2.62s GPU  (     125 calls)
     add_vuspsi   :      0.02s CPU      0.02s WALL (     125 calls)

     General routines
     calbec       :      0.04s CPU      0.07s WALL (     125 calls)
     fft          :      0.00s CPU      0.03s WALL (      14 calls)
                                        0.03s GPU  (      14 calls)
     fftw         :      0.38s CPU      1.20s WALL (   44372 calls)
                                        0.91s GPU  (   44372 calls)
     davcio       :      0.07s CPU      0.04s WALL (       6 calls)
 
     Parallel routines
 
     PWSCF        :      5.65s CPU      6.94s WALL

 
   This run was terminated on:  13:56:38  20Jul2026            

=------------------------------------------------------------------------------=
   JOB DONE.
=------------------------------------------------------------------------------=
