&control
   prefix = 'MoS2'
   pseudo_dir = './'
   calculation = 'nscf'
/
&system
   ecutwfc = 30.0
   ibrav = 0
   nat = 3
   ntyp = 2
   noncolin = .true.
   lspinorb = .true.
   no_t_rev = .true.
   nbnd = 82
   assume_isolated = '2D'
/
&electrons
   electron_maxstep = 100
   conv_thr = 1e-10
   mixing_mode = 'plain'
   mixing_beta = 0.7
   mixing_ndim = 8
   diagonalization = 'david'
   diago_david_ndim = 4
   diago_full_acc = .true.
/

ATOMIC_SPECIES
   Mo 95.94 'Mo.upf'
   S  32.07 'S.upf'

CELL_PARAMETERS angstrom
   3.164292  0.000000  0.00000
  -1.582142  2.740357  0.00000
   0.000000  0.000000 12.00000

ATOMIC_POSITIONS crystal
   Mo  0.666667  0.333333  0.000000
   S   0.333333  0.666667  0.131928
   S   0.333333  0.666667 -0.131928

K_POINTS crystal
   16
  0.000000000  0.000000000  0.000000000   1.0
  0.000000000  0.250000000  0.000000000   1.0
  0.000000000  0.500000000  0.000000000   1.0
  0.000000000  0.750000000  0.000000000   1.0
  0.250000000  0.000000000  0.000000000   1.0
  0.250000000  0.250000000  0.000000000   1.0
  0.250000000  0.500000000  0.000000000   1.0
  0.250000000  0.750000000  0.000000000   1.0
  0.500000000  0.000000000  0.000000000   1.0
  0.500000000  0.250000000  0.000000000   1.0
  0.500000000  0.500000000  0.000000000   1.0
  0.500000000  0.750000000  0.000000000   1.0
  0.750000000  0.000000000  0.000000000   1.0
  0.750000000  0.250000000  0.000000000   1.0
  0.750000000  0.500000000  0.000000000   1.0
  0.750000000  0.750000000  0.000000000   1.0
