
     Program PWSCF v.7.3.1 starts on  4May2026 at 14: 6:30 
        Git branch: HEAD
        Last git commit: 7fd60c9bc9fe7a7d1fe6f1049f4afba0eab9aeef-dirty
        Last git commit date: Thu Feb 29 10:18:05 2024 +0000
        Last git commit subject: Merge branch 'master_qe_7.3.1' into 'master'

     This program is part of the open-source Quantum ESPRESSO suite
     for quantum simulation of materials; please cite
         "P. Giannozzi et al., J. Phys.:Condens. Matter 21 395502 (2009);
         "P. Giannozzi et al., J. Phys.:Condens. Matter 29 465901 (2017);
         "P. Giannozzi et al., J. Chem. Phys. 152 154105 (2020);
          URL http://www.quantum-espresso.org", 
     in publications or presentations arising from this work. More details at
     http://www.quantum-espresso.org/quote

     Parallel version (MPI & OpenMP), running on      64 processor cores
     Number of MPI processes:                 4
     Threads/MPI process:                    16

     MPI processes distributed on     1 nodes
     209009 MiB available memory on the printing compute node when the environment starts
 
     Reading input from scf.in

     Current dimensions of program PWSCF are:
     Max number of different atomic species (ntypx) = 10
     Max number of k-points (npk) =  40000
     Max angular momentum in pseudopotentials (lmaxx) =  4
     Message from routine setup:
     using ibrav=0 with symmetry is DISCOURAGED, use correct ibrav instead
 
     K-points division:     npool     =       4
     Subspace diagonalization in iterative solution of the eigenvalue problem:
     a serial algorithm will be used

 
     G-vector sticks info
     --------------------
     sticks:   dense  smooth     PW     G-vecs:    dense   smooth      PW
     Sum         595     595    169                44037    44037    7057
 
     Using Slab Decomposition
 


     bravais-lattice index     =            0
     lattice parameter (alat)  =       5.9796  a.u.
     unit-cell volume          =     702.2012 (a.u.)^3
     number of atoms/cell      =            3
     number of atomic types    =            2
     number of electrons       =        26.00
     number of Kohn-Sham states=           34
     kinetic-energy cutoff     =      60.0000  Ry
     charge density cutoff     =     240.0000  Ry
     scf convergence threshold =      1.0E-10
     mixing beta               =       0.7000
     number of iterations used =            8  plain     mixing
     Exchange-correlation= PBE
                           (   1   4   3   4   0   0   0)
     Non magnetic calculation with spin-orbit


     GPU acceleration is ACTIVE.  4 visible GPUs per MPI rank


     celldm(1)=   5.979645  celldm(2)=   0.000000  celldm(3)=   0.000000
     celldm(4)=   0.000000  celldm(5)=   0.000000  celldm(6)=   0.000000

     crystal axes: (cart. coord. in units of alat)
               a(1) = (   1.000000   0.000000   0.000000 )  
               a(2) = (  -0.499999   0.866025   0.000000 )  
               a(3) = (   0.000000   0.000000   3.792318 )  

     reciprocal axes: (cart. coord. in units 2 pi/alat)
               b(1) = (  1.000000  0.577349 -0.000000 )  
               b(2) = (  0.000000  1.154701  0.000000 )  
               b(3) = (  0.000000 -0.000000  0.263691 )  


     PseudoPot. # 1 for Mo read from file:
     ./Mo.upf
     MD5 check sum: 4e1c3579de4f68baf863f15f5be96aa1
     Pseudo is Norm-conserving + core correction, Zval = 14.0
     Generated using ONCVPSP code by D. R. Hamann
     Using radial grid of 1640 points, 10 beta functions with: 
                l(1) =   0
                l(2) =   0
                l(3) =   1
                l(4) =   1
                l(5) =   1
                l(6) =   1
                l(7) =   2
                l(8) =   2
                l(9) =   2
               l(10) =   2

     PseudoPot. # 2 for S  read from file:
     ./S.upf
     MD5 check sum: a7319d53700e7dada26ada44d0048388
     Pseudo is Norm-conserving + core correction, Zval =  6.0
     Generated using ONCVPSP code by D. R. Hamann
     Using radial grid of 1146 points, 10 beta functions with: 
                l(1) =   0
                l(2) =   0
                l(3) =   1
                l(4) =   1
                l(5) =   1
                l(6) =   1
                l(7) =   2
                l(8) =   2
                l(9) =   2
               l(10) =   2

     atomic species   valence    mass     pseudopotential
     Mo               14.00    95.94000     Mo( 1.00)
     S                 6.00    32.07000     S ( 1.00)

      2 Sym. Ops. (no inversion) found



   Cartesian axes

     site n.     atom                  positions (alat units)
         1        Mo     tau(   1) = (   0.5000009   0.2886748   0.0000000  )
         2        S      tau(   2) = (   0.0000003   0.5773505   0.5003129  )
         3        S      tau(   3) = (   0.0000003   0.5773505  -0.5003129  )

     number of k points=     5
                       cart. coord. in units 2pi/alat
        k(    1) = (   0.0000000   0.0000000   0.0000000), wk =   0.1111111
        k(    2) = (   0.0000000   0.3849002   0.0000000), wk =   0.2222222
        k(    3) = (   0.3333333   0.1924496   0.0000000), wk =   0.2222222
        k(    4) = (   0.3333333   0.5773498   0.0000000), wk =   0.2222222
        k(    5) = (   0.3333333  -0.1924506   0.0000000), wk =   0.2222222

     Dense  grid:    44037 G-vectors     FFT dimensions: (  30,  30, 120)

     Estimated max dynamical RAM per process >     158.69 MB

     Estimated total dynamical RAM >     505.76 MB
 ----2D----2D----2D----2D----2D----2D----2D----2D----2D----2D----2D----2D
  The code is running with the 2D cutoff
  Please refer to:
  Sohier, T., Calandra, M., & Mauri, F. (2017), 
  Density functional perturbation theory for gated two-dimensional heterostructures:
  Theoretical developments and application to flexural phonons in graphene.
  Physical Review B, 96(7), 75448. https://doi.org/10.1103/PhysRevB.96.075448
 ----2D----2D----2D----2D----2D----2D----2D----2D----2D----2D----2D----2D

     Initial potential from superposition of free atoms

     starting charge      25.9985, renormalised to      26.0000

     negative rho (up, down):  1.126E-07 0.000E+00
     Starting wfcs are   36 randomized atomic wfcs

     total cpu time spent up to now is        1.2 secs

     per-process dynamical memory:   354.4 Mb

     Self-consistent Calculation

     iteration #  1     ecut=    60.00 Ry     beta= 0.70
     Davidson diagonalization with overlap
     ethr =  1.00E-02,  avg # of iterations =  3.0

     total cpu time spent up to now is        1.4 secs

     total energy              =    -184.62400145 Ry
     estimated scf accuracy    <       0.43430617 Ry

     iteration #  2     ecut=    60.00 Ry     beta= 0.70
     Davidson diagonalization with overlap
     ethr =  1.67E-03,  avg # of iterations =  3.0

     total cpu time spent up to now is        1.6 secs

     total energy              =    -184.22457437 Ry
     estimated scf accuracy    <       4.44803034 Ry

     iteration #  3     ecut=    60.00 Ry     beta= 0.70
     Davidson diagonalization with overlap
     ethr =  1.67E-03,  avg # of iterations =  3.0

     total cpu time spent up to now is        1.8 secs

     total energy              =    -184.85280520 Ry
     estimated scf accuracy    <       0.15037048 Ry

     iteration #  4     ecut=    60.00 Ry     beta= 0.70
     Davidson diagonalization with overlap
     ethr =  5.78E-04,  avg # of iterations =  2.0

     total cpu time spent up to now is        1.9 secs

     total energy              =    -184.86681724 Ry
     estimated scf accuracy    <       0.00597589 Ry

     iteration #  5     ecut=    60.00 Ry     beta= 0.70
     Davidson diagonalization with overlap
     ethr =  2.30E-05,  avg # of iterations =  3.8

     total cpu time spent up to now is        2.1 secs

     total energy              =    -184.86860050 Ry
     estimated scf accuracy    <       0.00113076 Ry

     iteration #  6     ecut=    60.00 Ry     beta= 0.70
     Davidson diagonalization with overlap
     ethr =  4.35E-06,  avg # of iterations =  1.4

     total cpu time spent up to now is        2.2 secs

     total energy              =    -184.86864657 Ry
     estimated scf accuracy    <       0.00011517 Ry

     iteration #  7     ecut=    60.00 Ry     beta= 0.70
     Davidson diagonalization with overlap
     ethr =  4.43E-07,  avg # of iterations =  3.0

     total cpu time spent up to now is        2.4 secs

     total energy              =    -184.86867048 Ry
     estimated scf accuracy    <       0.00000398 Ry

     iteration #  8     ecut=    60.00 Ry     beta= 0.70
     Davidson diagonalization with overlap
     ethr =  1.53E-08,  avg # of iterations =  3.0

     total cpu time spent up to now is        2.5 secs

     total energy              =    -184.86867100 Ry
     estimated scf accuracy    <       0.00000095 Ry

     iteration #  9     ecut=    60.00 Ry     beta= 0.70
     Davidson diagonalization with overlap
     ethr =  3.64E-09,  avg # of iterations =  2.2

     total cpu time spent up to now is        2.7 secs

     total energy              =    -184.86867114 Ry
     estimated scf accuracy    <          7.3E-09 Ry

     iteration # 10     ecut=    60.00 Ry     beta= 0.70
     Davidson diagonalization with overlap
     ethr =  2.82E-11,  avg # of iterations =  4.0

     total cpu time spent up to now is        2.9 secs

     total energy              =    -184.86867115 Ry
     estimated scf accuracy    <          1.9E-09 Ry

     iteration # 11     ecut=    60.00 Ry     beta= 0.70
     Davidson diagonalization with overlap
     ethr =  7.35E-12,  avg # of iterations =  2.0

     total cpu time spent up to now is        3.0 secs

     End of self-consistent calculation

          k = 0.0000 0.0000 0.0000 (  5545 PWs)   bands (ev):

   -66.0603 -66.0603 -41.7821 -41.7821 -39.3779 -39.3779 -39.1584 -39.1584
   -19.4347 -19.4347 -18.2072 -18.2072 -10.9151 -10.9151  -7.7884  -7.7884
    -7.7250  -7.7250  -7.1378  -7.1378  -6.7532  -6.7532  -6.6681  -6.6681
    -5.3628  -5.3628  -2.5726  -2.5726  -2.4952  -2.4952  -2.3237  -2.3237
    -2.3227  -2.3227

          k = 0.0000 0.3849 0.0000 (  5509 PWs)   bands (ev):

   -66.0301 -66.0301 -41.8633 -41.8633 -39.4570 -39.4570 -39.3019 -39.3019
   -18.0957 -18.0957 -17.6253 -17.6253 -10.5146 -10.5146  -9.5422  -9.5422
    -9.2054  -9.2054  -8.0829  -8.0829  -7.0326  -7.0326  -6.5704  -6.5704
    -6.2648  -6.2648  -3.0344  -3.0344  -2.9309  -2.9309  -1.8581  -1.8581
    -1.2534  -1.2534

          k = 0.3333 0.1924 0.0000 (  5509 PWs)   bands (ev):

   -66.0301 -66.0301 -41.8633 -41.8633 -39.4570 -39.4570 -39.3019 -39.3019
   -18.0957 -18.0957 -17.6254 -17.6254 -10.5146 -10.5146  -9.5422  -9.5422
    -9.2054  -9.2054  -8.0829  -8.0829  -7.0326  -7.0326  -6.5704  -6.5704
    -6.2648  -6.2648  -3.0344  -3.0344  -2.9309  -2.9309  -1.8581  -1.8581
    -1.2534  -1.2534

          k = 0.3333 0.5773 0.0000 (  5502 PWs)   bands (ev):

   -66.0151 -66.0151 -41.9146 -41.8920 -39.4759 -39.4280 -39.4270 -39.4112
   -17.2620 -17.2177 -17.2140 -17.2020 -10.7263 -10.7185  -9.9767  -9.9413
    -9.4267  -9.3722  -8.8481  -8.8272  -8.3086  -8.2589  -7.5663  -7.5431
    -5.3075  -5.1632  -3.5011  -3.4989  -2.3602  -2.3270  -1.7585  -1.6130
    -0.3985  -0.3147

          k = 0.3333-0.1925 0.0000 (  5509 PWs)   bands (ev):

   -66.0301 -66.0301 -41.8633 -41.8633 -39.4570 -39.4570 -39.3019 -39.3019
   -18.0957 -18.0957 -17.6253 -17.6253 -10.5146 -10.5146  -9.5422  -9.5422
    -9.2054  -9.2054  -8.0829  -8.0829  -7.0326  -7.0326  -6.5704  -6.5704
    -6.2648  -6.2648  -3.0345  -3.0345  -2.9309  -2.9309  -1.8581  -1.8581
    -1.2534  -1.2534

     highest occupied, lowest unoccupied level (ev):    -5.1632   -3.5011

!    total energy              =    -184.86867115 Ry
     estimated scf accuracy    <          2.6E-11 Ry

     The total energy is the sum of the following terms:
     one-electron contribution =    -882.05573188 Ry
     hartree contribution      =     437.27775597 Ry
     xc contribution           =     -33.36553759 Ry
     ewald contribution        =     293.27484234 Ry

     convergence has been achieved in  11 iterations

     Writing all to output data dir ./MoS2.save/ :
     XML data file, charge density, pseudopotentials, collected wavefunctions
 
     init_run     :      0.33s CPU      0.85s WALL (       1 calls)
     electrons    :      1.69s CPU      1.80s WALL (       1 calls)

     Called by init_run:
     wfcinit      :      0.10s CPU      0.54s WALL (       1 calls)
     potinit      :      0.04s CPU      0.08s WALL (       1 calls)
     hinit0       :      0.18s CPU      0.20s WALL (       1 calls)

     Called by electrons:
     c_bands      :      1.19s CPU      1.23s WALL (      11 calls)
     sum_band     :      0.23s CPU      0.24s WALL (      11 calls)
     v_of_rho     :      0.03s CPU      0.08s WALL (      12 calls)
     mix_rho      :      0.18s CPU      0.19s WALL (      11 calls)

     Called by c_bands:
     init_us_2    :      0.01s CPU      0.01s WALL (      46 calls)
     cegterg      :      1.11s CPU      1.14s WALL (      22 calls)

     Called by *egterg:
     cdiaghg      :      0.18s CPU      0.42s WALL (      82 calls)
                                        0.42s GPU  (      82 calls)
     h_psi        :      0.97s CPU      1.12s WALL (      84 calls)
                                        1.12s GPU  (      84 calls)
     g_psi        :      0.00s CPU      0.00s WALL (      60 calls)
                                        0.00s GPU  (      60 calls)

     Called by h_psi:
     h_psi:calbec :      0.03s CPU      0.17s WALL (      84 calls)
                                        0.17s GPU  (      84 calls)
     vloc_psi     :      0.91s CPU      0.93s WALL (      84 calls)
                                        0.93s GPU  (      84 calls)
     add_vuspsi   :      0.01s CPU      0.01s WALL (      84 calls)
                                        0.01s GPU  (      84 calls)

     General routines
     calbec       :      0.03s CPU      0.17s WALL (      84 calls)
     fft          :      0.01s CPU      0.08s WALL (     186 calls)
                                        0.07s GPU  (     186 calls)
     ffts         :      0.00s CPU      0.00s WALL (      44 calls)
                                        0.00s GPU  (      44 calls)
     fftw         :      0.09s CPU      0.31s WALL (   10108 calls)
                                        0.25s GPU  (   10108 calls)
 
     Parallel routines
 
     PWSCF        :      2.31s CPU      3.08s WALL

 
   This run was terminated on:  14: 6:33   4May2026            

=------------------------------------------------------------------------------=
   JOB DONE.
=------------------------------------------------------------------------------=
Warning: ieee_invalid is signaling
Warning: ieee_inexact is signaling
FORTRAN STOP
Warning: ieee_invalid is signaling
Warning: ieee_inexact is signaling
FORTRAN STOP
Warning: ieee_invalid is signaling
Warning: ieee_inexact is signaling
FORTRAN STOP
Warning: ieee_inexact is signaling
FORTRAN STOP
