&inputpp
  prefix='CrI3'
  outdir='/pscratch/sd/j/jackm/lorrax_sandbox/runs/CrI3/B_orbmag_FM_6x6_30Ry_2026-06-16/qe/scf'
  plot_num=2
  filplot='/pscratch/sd/j/jackm/lorrax_sandbox/reports/B_orbital_magnetization_cri3_2026-06-16/pp_2.dat'
/
&plot
  iflag=3
  output_format=6
  fileout='/pscratch/sd/j/jackm/lorrax_sandbox/reports/B_orbital_magnetization_cri3_2026-06-16/pp_2.cube'
/
