
     Program PWSCF v.7.3.1 starts on  7May2026 at 10:44: 3 
        Git branch: HEAD
        Last git commit: 7fd60c9bc9fe7a7d1fe6f1049f4afba0eab9aeef-dirty
        Last git commit date: Thu Feb 29 10:18:05 2024 +0000
        Last git commit subject: Merge branch 'master_qe_7.3.1' into 'master'

     This program is part of the open-source Quantum ESPRESSO suite
     for quantum simulation of materials; please cite
         "P. Giannozzi et al., J. Phys.:Condens. Matter 21 395502 (2009);
         "P. Giannozzi et al., J. Phys.:Condens. Matter 29 465901 (2017);
         "P. Giannozzi et al., J. Chem. Phys. 152 154105 (2020);
          URL http://www.quantum-espresso.org", 
     in publications or presentations arising from this work. More details at
     http://www.quantum-espresso.org/quote

     Parallel version (MPI & OpenMP), running on      64 processor cores
     Number of MPI processes:                 4
     Threads/MPI process:                    16

     MPI processes distributed on     1 nodes
     193710 MiB available memory on the printing compute node when the environment starts
 
     Reading input from scf.in

     Current dimensions of program PWSCF are:
     Max number of different atomic species (ntypx) = 10
     Max number of k-points (npk) =  40000
     Max angular momentum in pseudopotentials (lmaxx) =  4
     Message from routine setup:
     using ibrav=0 with symmetry is DISCOURAGED, use correct ibrav instead
 
     K-points division:     npool     =       4
     Subspace diagonalization in iterative solution of the eigenvalue problem:
     a serial algorithm will be used

     Message from routine divide_et_impera:
     suboptimal parallelization: some nodes have no k-points
 
     G-vector sticks info
     --------------------
     sticks:   dense  smooth     PW     G-vecs:    dense   smooth      PW
     Sum        1393    1393    379               110147   110147   16329
 
     Using Slab Decomposition
 


     bravais-lattice index     =            0
     lattice parameter (alat)  =      12.9767  a.u.
     unit-cell volume          =    4960.5953 (a.u.)^3
     number of atoms/cell      =            8
     number of atomic types    =            2
     number of electrons       =        70.00
     number of Kohn-Sham states=           78
     kinetic-energy cutoff     =      30.0000  Ry
     charge density cutoff     =     120.0000  Ry
     scf convergence threshold =      1.0E-09
     mixing beta               =       0.4000
     number of iterations used =            8  plain     mixing
     Exchange-correlation= PBE
                           (   1   4   3   4   0   0   0)
     Non magnetic calculation with spin-orbit


     GPU acceleration is ACTIVE.  4 visible GPUs per MPI rank


     GPU used by master process:

        Device Number: 0
        Device name: NVIDIA A100-SXM4-80GB
        Compute capability : 80
        Ratio of single to double precision performance  : 2
        Memory Clock Rate (KHz): 1593000
        Memory Bus Width (bits): 5120
        Peak Memory Bandwidth (GB/s): ******

     celldm(1)=  12.976749  celldm(2)=   0.000000  celldm(3)=   0.000000
     celldm(4)=   0.000000  celldm(5)=   0.000000  celldm(6)=   0.000000

     crystal axes: (cart. coord. in units of alat)
               a(1) = (   1.000000   0.000000   0.000000 )  
               a(2) = (  -0.500000   0.866025   0.000000 )  
               a(3) = (   0.000000   0.000000   2.621232 )  

     reciprocal axes: (cart. coord. in units 2 pi/alat)
               b(1) = (  1.000000  0.577350 -0.000000 )  
               b(2) = (  0.000000  1.154701  0.000000 )  
               b(3) = (  0.000000 -0.000000  0.381500 )  


     PseudoPot. # 1 for Cr read from file:
     ./Cr.upf
     MD5 check sum: e4755fb39f753e55e5d2a46de4395b17
     Pseudo is Norm-conserving + core correction, Zval = 14.0
     Generated using ONCVPSP code by D. R. Hamann
     Using radial grid of 1638 points, 10 beta functions with: 
                l(1) =   0
                l(2) =   0
                l(3) =   1
                l(4) =   1
                l(5) =   1
                l(6) =   1
                l(7) =   2
                l(8) =   2
                l(9) =   2
               l(10) =   2

     PseudoPot. # 2 for I  read from file:
     ./I.upf
     MD5 check sum: 301f7009ca0a2b18b0adf53dca02d42f
     Pseudo is Norm-conserving + core correction, Zval =  7.0
     Generated using ONCVPSP code by D. R. Hamann
     Using radial grid of 1210 points, 10 beta functions with: 
                l(1) =   0
                l(2) =   0
                l(3) =   1
                l(4) =   1
                l(5) =   1
                l(6) =   1
                l(7) =   2
                l(8) =   2
                l(9) =   2
               l(10) =   2

     atomic species   valence    mass     pseudopotential
     Cr               14.00    51.99600     Cr( 1.00)
     I                 7.00   126.90400     I ( 1.00)

      6 Sym. Ops., with inversion, found


                                    s                        frac. trans.

      isym =  1     identity                                     

 cryst.   s( 1) = (     1          0          0      )
                  (     0          1          0      )
                  (     0          0          1      )

 cart.    s( 1) = (  1.0000000  0.0000000  0.0000000 )
                  (  0.0000000  1.0000000  0.0000000 )
                  (  0.0000000  0.0000000  1.0000000 )


      isym =  2     120 deg rotation - cryst. axis [0,0,1]       

 cryst.   s( 2) = (     0          1          0      )
                  (    -1         -1          0      )
                  (     0          0          1      )

 cart.    s( 2) = ( -0.5000000 -0.8660255  0.0000000 )
                  (  0.8660253 -0.5000000  0.0000000 )
                  (  0.0000000  0.0000000  1.0000000 )


      isym =  3     120 deg rotation - cryst. axis [0,0,-1]      

 cryst.   s( 3) = (    -1         -1          0      )
                  (     1          0          0      )
                  (     0          0          1      )

 cart.    s( 3) = ( -0.5000000  0.8660255  0.0000000 )
                  ( -0.8660253 -0.5000000  0.0000000 )
                  (  0.0000000  0.0000000  1.0000000 )


      isym =  4     inversion                                    

 cryst.   s( 4) = (    -1          0          0      )
                  (     0         -1          0      )
                  (     0          0         -1      )

 cart.    s( 4) = ( -1.0000000  0.0000000  0.0000000 )
                  (  0.0000000 -1.0000000  0.0000000 )
                  (  0.0000000  0.0000000 -1.0000000 )


      isym =  5     inv. 120 deg rotation - cryst. axis [0,0,1]  

 cryst.   s( 5) = (     0         -1          0      )
                  (     1          1          0      )
                  (     0          0         -1      )

 cart.    s( 5) = (  0.5000000  0.8660255  0.0000000 )
                  ( -0.8660253  0.5000000  0.0000000 )
                  (  0.0000000  0.0000000 -1.0000000 )


      isym =  6     inv. 120 deg rotation - cryst. axis [0,0,-1] 

 cryst.   s( 6) = (     1          1          0      )
                  (    -1          0          0      )
                  (     0          0         -1      )

 cart.    s( 6) = (  0.5000000 -0.8660255  0.0000000 )
                  (  0.8660253  0.5000000  0.0000000 )
                  (  0.0000000  0.0000000 -1.0000000 )


   Cartesian axes

     site n.     atom                  positions (alat units)
         1        Cr     tau(   1) = (  -0.0000000   0.5773502   0.0009902  )
         2        Cr     tau(   2) = (   0.5000000   0.2886751   2.6202417  )
         3        I      tau(   3) = (  -0.1495050   0.8649890   2.3934629  )
         4        I      tau(   4) = (  -0.1743500   0.3040557   2.3934629  )
         5        I      tau(   5) = (   0.3238550   0.5630060   2.3934629  )
         6        I      tau(   6) = (   0.6495050   0.0010363   0.2277690  )
         7        I      tau(   7) = (   0.6743500   0.5619696   0.2277690  )
         8        I      tau(   8) = (   0.1761450   0.3030194   0.2277690  )

   Crystallographic axes

     site n.     atom                  positions (cryst. coord.)
         1        Cr     tau(   1) = (  0.3333333  0.6666667  0.0003778  )
         2        Cr     tau(   2) = (  0.6666667  0.3333333  0.9996222  )
         3        I      tau(   3) = (  0.3498967  0.9988033  0.9131061  )
         4        I      tau(   4) = (  0.0011967  0.3510934  0.9131061  )
         5        I      tau(   5) = (  0.6489066  0.6501033  0.9131061  )
         6        I      tau(   6) = (  0.6501033  0.0011967  0.0868939  )
         7        I      tau(   7) = (  0.9988033  0.6489066  0.0868939  )
         8        I      tau(   8) = (  0.3510934  0.3498967  0.0868939  )

     number of k points=     3
                       cart. coord. in units 2pi/alat
        k(    1) = (   0.0000000   0.0000000   0.0000000), wk =   0.1111111
        k(    2) = (   0.0000000   0.3849002   0.0000000), wk =   0.6666667
        k(    3) = (   0.3333333   0.5773503   0.0000000), wk =   0.2222222

                       cryst. coord.
        k(    1) = (   0.0000000   0.0000000   0.0000000), wk =   0.1111111
        k(    2) = (   0.0000000   0.3333333   0.0000000), wk =   0.6666667
        k(    3) = (   0.3333333   0.3333333   0.0000000), wk =   0.2222222

     Dense  grid:   110147 G-vectors     FFT dimensions: (  45,  45, 120)

     Dynamical RAM for                 wfc:      32.77 MB

     Dynamical RAM for     wfc (w. buffer):      32.77 MB

     Dynamical RAM for           str. fact:       3.36 MB

     Dynamical RAM for           local pot:       0.00 MB

     Dynamical RAM for          nlocal pot:      57.13 MB

     Dynamical RAM for                qrad:       4.61 MB

     Dynamical RAM for          rho,v,vnew:      42.42 MB

     Dynamical RAM for               rhoin:      14.14 MB

     Dynamical RAM for            rho*nmix:     107.57 MB

     Dynamical RAM for           G-vectors:       7.14 MB

     Dynamical RAM for          h,s,v(r/c):       4.46 MB

     Dynamical RAM for          <psi|beta>:       0.65 MB

     Dynamical RAM for                 psi:     131.06 MB

     Dynamical RAM for                hpsi:     131.06 MB

     Dynamical RAM for      wfcinit/wfcrot:      55.63 MB

     Estimated static dynamical RAM per process >     181.44 MB

     Estimated max dynamical RAM per process >     556.24 MB

     Estimated total dynamical RAM >       1.86 GB
 ----2D----2D----2D----2D----2D----2D----2D----2D----2D----2D----2D----2D
  The code is running with the 2D cutoff
  Please refer to:
  Sohier, T., Calandra, M., & Mauri, F. (2017), 
  Density functional perturbation theory for gated two-dimensional heterostructures:
  Theoretical developments and application to flexural phonons in graphene.
  Physical Review B, 96(7), 75448. https://doi.org/10.1103/PhysRevB.96.075448
 ----2D----2D----2D----2D----2D----2D----2D----2D----2D----2D----2D----2D

     Check: negative core charge=   -0.000380

     Initial potential from superposition of free atoms

     starting charge      69.9966, renormalised to      70.0000

     negative rho (up, down):  3.192E-02 0.000E+00
     Starting wfcs are   88 randomized atomic wfcs

     total cpu time spent up to now is        1.0 secs

     per-process dynamical memory:   371.8 Mb

     Self-consistent Calculation
[tb_dev] Currently allocated     3.24E+00 Mbytes, locked:    0 /   4
[tb_pin] Currently allocated     0.00E+00 Mbytes, locked:    0 /   0

     iteration #  1     ecut=    30.00 Ry     beta= 0.40
     Davidson diagonalization with overlap

---- Real-time Memory Report at c_bands before calling an iterative solver
           807 MiB given to the printing process from OS
           383 MiB allocation reported by mallinfo(arena+hblkhd)
        192253 MiB available memory on the node where the printing process lives
     GPU memory used/free/total (MiB): 994 / 80158 / 81152
------------------
     ethr =  1.00E-02,  avg # of iterations =  5.7

     negative rho (up, down):  8.721E-03 0.000E+00

     total cpu time spent up to now is        1.3 secs

     total energy              =    -500.07720469 Ry
     estimated scf accuracy    <      14.59306793 Ry
[tb_dev] Currently allocated     3.05E-05 Mbytes, locked:    0 /   1
[tb_pin] Currently allocated     0.00E+00 Mbytes, locked:    0 /   0

     iteration #  2     ecut=    30.00 Ry     beta= 0.40
     Davidson diagonalization with overlap

---- Real-time Memory Report at c_bands before calling an iterative solver
           882 MiB given to the printing process from OS
           556 MiB allocation reported by mallinfo(arena+hblkhd)
        192073 MiB available memory on the node where the printing process lives
     GPU memory used/free/total (MiB): 1390 / 79762 / 81152
------------------
     ethr =  1.00E-02,  avg # of iterations =  5.3

     negative rho (up, down):  7.372E-03 0.000E+00

     total cpu time spent up to now is        1.6 secs

     total energy              =    -501.41517108 Ry
     estimated scf accuracy    <      55.54905984 Ry
[tb_dev] Currently allocated     3.05E-05 Mbytes, locked:    0 /   1
[tb_pin] Currently allocated     0.00E+00 Mbytes, locked:    0 /   0

     iteration #  3     ecut=    30.00 Ry     beta= 0.40
     Davidson diagonalization with overlap

---- Real-time Memory Report at c_bands before calling an iterative solver
           905 MiB given to the printing process from OS
           570 MiB allocation reported by mallinfo(arena+hblkhd)
        192038 MiB available memory on the node where the printing process lives
     GPU memory used/free/total (MiB): 1400 / 79752 / 81152
------------------
     ethr =  1.00E-02,  avg # of iterations =  4.0

     negative rho (up, down):  4.655E-03 0.000E+00

     total cpu time spent up to now is        1.9 secs

     total energy              =    -506.29731970 Ry
     estimated scf accuracy    <       0.83635703 Ry
[tb_dev] Currently allocated     3.05E-05 Mbytes, locked:    0 /   1
[tb_pin] Currently allocated     0.00E+00 Mbytes, locked:    0 /   0

     iteration #  4     ecut=    30.00 Ry     beta= 0.40
     Davidson diagonalization with overlap

---- Real-time Memory Report at c_bands before calling an iterative solver
           932 MiB given to the printing process from OS
           583 MiB allocation reported by mallinfo(arena+hblkhd)
        192011 MiB available memory on the node where the printing process lives
     GPU memory used/free/total (MiB): 1400 / 79752 / 81152
------------------
     ethr =  1.19E-03,  avg # of iterations =  2.0

     negative rho (up, down):  2.013E-03 0.000E+00

     total cpu time spent up to now is        2.1 secs

     total energy              =    -506.30380732 Ry
     estimated scf accuracy    <       0.19445731 Ry
[tb_dev] Currently allocated     3.05E-05 Mbytes, locked:    0 /   1
[tb_pin] Currently allocated     0.00E+00 Mbytes, locked:    0 /   0

     iteration #  5     ecut=    30.00 Ry     beta= 0.40
     Davidson diagonalization with overlap

---- Real-time Memory Report at c_bands before calling an iterative solver
           953 MiB given to the printing process from OS
           597 MiB allocation reported by mallinfo(arena+hblkhd)
        191990 MiB available memory on the node where the printing process lives
     GPU memory used/free/total (MiB): 1400 / 79752 / 81152
------------------
     ethr =  2.78E-04,  avg # of iterations =  5.0

     negative rho (up, down):  5.786E-04 0.000E+00

     total cpu time spent up to now is        2.3 secs

     total energy              =    -506.33358888 Ry
     estimated scf accuracy    <       0.07721007 Ry
[tb_dev] Currently allocated     3.05E-05 Mbytes, locked:    0 /   1
[tb_pin] Currently allocated     0.00E+00 Mbytes, locked:    0 /   0

     iteration #  6     ecut=    30.00 Ry     beta= 0.40
     Davidson diagonalization with overlap

---- Real-time Memory Report at c_bands before calling an iterative solver
          1018 MiB given to the printing process from OS
           624 MiB allocation reported by mallinfo(arena+hblkhd)
        191926 MiB available memory on the node where the printing process lives
     GPU memory used/free/total (MiB): 1400 / 79752 / 81152
------------------
     ethr =  1.10E-04,  avg # of iterations =  6.3

     negative rho (up, down):  1.804E-04 0.000E+00

     total cpu time spent up to now is        2.6 secs

     total energy              =    -506.34916193 Ry
     estimated scf accuracy    <       0.02431971 Ry
[tb_dev] Currently allocated     3.05E-05 Mbytes, locked:    0 /   1
[tb_pin] Currently allocated     0.00E+00 Mbytes, locked:    0 /   0

     iteration #  7     ecut=    30.00 Ry     beta= 0.40
     Davidson diagonalization with overlap

---- Real-time Memory Report at c_bands before calling an iterative solver
          1044 MiB given to the printing process from OS
           644 MiB allocation reported by mallinfo(arena+hblkhd)
        191894 MiB available memory on the node where the printing process lives
     GPU memory used/free/total (MiB): 1400 / 79752 / 81152
------------------
     ethr =  3.47E-05,  avg # of iterations =  1.3

     negative rho (up, down):  1.849E-05 0.000E+00

     total cpu time spent up to now is        2.8 secs

     total energy              =    -506.34679906 Ry
     estimated scf accuracy    <       0.01267831 Ry
[tb_dev] Currently allocated     3.05E-05 Mbytes, locked:    0 /   1
[tb_pin] Currently allocated     0.00E+00 Mbytes, locked:    0 /   0

     iteration #  8     ecut=    30.00 Ry     beta= 0.40
     Davidson diagonalization with overlap

---- Real-time Memory Report at c_bands before calling an iterative solver
          1061 MiB given to the printing process from OS
           657 MiB allocation reported by mallinfo(arena+hblkhd)
        191875 MiB available memory on the node where the printing process lives
     GPU memory used/free/total (MiB): 1400 / 79752 / 81152
------------------
     ethr =  1.81E-05,  avg # of iterations =  3.7

     negative rho (up, down):  2.658E-07 0.000E+00

     total cpu time spent up to now is        3.0 secs

     total energy              =    -506.34874550 Ry
     estimated scf accuracy    <       0.00091099 Ry
[tb_dev] Currently allocated     3.05E-05 Mbytes, locked:    0 /   1
[tb_pin] Currently allocated     0.00E+00 Mbytes, locked:    0 /   0

     iteration #  9     ecut=    30.00 Ry     beta= 0.40
     Davidson diagonalization with overlap

---- Real-time Memory Report at c_bands before calling an iterative solver
          1081 MiB given to the printing process from OS
           671 MiB allocation reported by mallinfo(arena+hblkhd)
        191856 MiB available memory on the node where the printing process lives
     GPU memory used/free/total (MiB): 1400 / 79752 / 81152
------------------
     ethr =  1.30E-06,  avg # of iterations =  4.0

     total cpu time spent up to now is        3.3 secs

     total energy              =    -506.34894219 Ry
     estimated scf accuracy    <       0.00007170 Ry
[tb_dev] Currently allocated     3.05E-05 Mbytes, locked:    0 /   1
[tb_pin] Currently allocated     0.00E+00 Mbytes, locked:    0 /   0

     iteration # 10     ecut=    30.00 Ry     beta= 0.40
     Davidson diagonalization with overlap

---- Real-time Memory Report at c_bands before calling an iterative solver
          1103 MiB given to the printing process from OS
           684 MiB allocation reported by mallinfo(arena+hblkhd)
        191832 MiB available memory on the node where the printing process lives
     GPU memory used/free/total (MiB): 1400 / 79752 / 81152
------------------
     ethr =  1.02E-07,  avg # of iterations =  9.7

     total cpu time spent up to now is        3.6 secs

     total energy              =    -506.34896057 Ry
     estimated scf accuracy    <       0.00004831 Ry
[tb_dev] Currently allocated     3.05E-05 Mbytes, locked:    0 /   1
[tb_pin] Currently allocated     0.00E+00 Mbytes, locked:    0 /   0

     iteration # 11     ecut=    30.00 Ry     beta= 0.40
     Davidson diagonalization with overlap

---- Real-time Memory Report at c_bands before calling an iterative solver
          1103 MiB given to the printing process from OS
           684 MiB allocation reported by mallinfo(arena+hblkhd)
        191834 MiB available memory on the node where the printing process lives
     GPU memory used/free/total (MiB): 1416 / 79736 / 81152
------------------
     ethr =  6.90E-08,  avg # of iterations =  1.7

     total cpu time spent up to now is        3.8 secs

     total energy              =    -506.34896118 Ry
     estimated scf accuracy    <       0.00001120 Ry
[tb_dev] Currently allocated     3.05E-05 Mbytes, locked:    0 /   1
[tb_pin] Currently allocated     0.00E+00 Mbytes, locked:    0 /   0

     iteration # 12     ecut=    30.00 Ry     beta= 0.40
     Davidson diagonalization with overlap

---- Real-time Memory Report at c_bands before calling an iterative solver
          1103 MiB given to the printing process from OS
           684 MiB allocation reported by mallinfo(arena+hblkhd)
        191834 MiB available memory on the node where the printing process lives
     GPU memory used/free/total (MiB): 1416 / 79736 / 81152
------------------
     ethr =  1.60E-08,  avg # of iterations =  4.0

     total cpu time spent up to now is        4.1 secs

     total energy              =    -506.34896339 Ry
     estimated scf accuracy    <       0.00000105 Ry
[tb_dev] Currently allocated     3.05E-05 Mbytes, locked:    0 /   1
[tb_pin] Currently allocated     0.00E+00 Mbytes, locked:    0 /   0

     iteration # 13     ecut=    30.00 Ry     beta= 0.40
     Davidson diagonalization with overlap

---- Real-time Memory Report at c_bands before calling an iterative solver
          1103 MiB given to the printing process from OS
           684 MiB allocation reported by mallinfo(arena+hblkhd)
        191835 MiB available memory on the node where the printing process lives
     GPU memory used/free/total (MiB): 1416 / 79736 / 81152
------------------
     ethr =  1.49E-09,  avg # of iterations =  3.0

     total cpu time spent up to now is        4.3 secs

     total energy              =    -506.34896344 Ry
     estimated scf accuracy    <       0.00000020 Ry
[tb_dev] Currently allocated     3.05E-05 Mbytes, locked:    0 /   1
[tb_pin] Currently allocated     0.00E+00 Mbytes, locked:    0 /   0

     iteration # 14     ecut=    30.00 Ry     beta= 0.40
     Davidson diagonalization with overlap

---- Real-time Memory Report at c_bands before calling an iterative solver
          1103 MiB given to the printing process from OS
           684 MiB allocation reported by mallinfo(arena+hblkhd)
        191835 MiB available memory on the node where the printing process lives
     GPU memory used/free/total (MiB): 1416 / 79736 / 81152
------------------
     ethr =  2.86E-10,  avg # of iterations =  6.3

     total cpu time spent up to now is        4.6 secs

     total energy              =    -506.34896350 Ry
     estimated scf accuracy    <       0.00000029 Ry
[tb_dev] Currently allocated     3.05E-05 Mbytes, locked:    0 /   1
[tb_pin] Currently allocated     0.00E+00 Mbytes, locked:    0 /   0

     iteration # 15     ecut=    30.00 Ry     beta= 0.40
     Davidson diagonalization with overlap

---- Real-time Memory Report at c_bands before calling an iterative solver
          1103 MiB given to the printing process from OS
           684 MiB allocation reported by mallinfo(arena+hblkhd)
        191835 MiB available memory on the node where the printing process lives
     GPU memory used/free/total (MiB): 1416 / 79736 / 81152
------------------
     ethr =  2.86E-10,  avg # of iterations =  2.7

     total cpu time spent up to now is        4.8 secs

     total energy              =    -506.34896352 Ry
     estimated scf accuracy    <          1.8E-09 Ry
[tb_dev] Currently allocated     3.05E-05 Mbytes, locked:    0 /   1
[tb_pin] Currently allocated     0.00E+00 Mbytes, locked:    0 /   0

     iteration # 16     ecut=    30.00 Ry     beta= 0.40
     Davidson diagonalization with overlap

---- Real-time Memory Report at c_bands before calling an iterative solver
          1103 MiB given to the printing process from OS
           684 MiB allocation reported by mallinfo(arena+hblkhd)
        191835 MiB available memory on the node where the printing process lives
     GPU memory used/free/total (MiB): 1416 / 79736 / 81152
------------------
     ethr =  2.59E-12,  avg # of iterations =  9.7

     total cpu time spent up to now is        5.2 secs

     total energy              =    -506.34896352 Ry
     estimated scf accuracy    <          3.5E-09 Ry
[tb_dev] Currently allocated     3.05E-05 Mbytes, locked:    0 /   1
[tb_pin] Currently allocated     0.00E+00 Mbytes, locked:    0 /   0

     iteration # 17     ecut=    30.00 Ry     beta= 0.40
     Davidson diagonalization with overlap

---- Real-time Memory Report at c_bands before calling an iterative solver
          1103 MiB given to the printing process from OS
           684 MiB allocation reported by mallinfo(arena+hblkhd)
        191833 MiB available memory on the node where the printing process lives
     GPU memory used/free/total (MiB): 1432 / 79720 / 81152
------------------
     ethr =  2.59E-12,  avg # of iterations =  2.0

     total cpu time spent up to now is        5.4 secs

     total energy              =    -506.34896352 Ry
     estimated scf accuracy    <          1.0E-09 Ry
[tb_dev] Currently allocated     3.05E-05 Mbytes, locked:    0 /   1
[tb_pin] Currently allocated     0.00E+00 Mbytes, locked:    0 /   0

     iteration # 18     ecut=    30.00 Ry     beta= 0.40
     Davidson diagonalization with overlap

---- Real-time Memory Report at c_bands before calling an iterative solver
          1103 MiB given to the printing process from OS
           684 MiB allocation reported by mallinfo(arena+hblkhd)
        191835 MiB available memory on the node where the printing process lives
     GPU memory used/free/total (MiB): 1432 / 79720 / 81152
------------------
     ethr =  1.47E-12,  avg # of iterations =  5.0

     total cpu time spent up to now is        5.6 secs

     End of self-consistent calculation

          k = 0.0000 0.0000 0.0000 ( 13787 PWs)   bands (ev):

   -85.8971 -85.8971 -85.8754 -85.8754 -56.5264 -56.5264 -56.4662 -56.4662
   -55.6231 -55.6231 -55.5551 -55.5551 -55.5381 -55.5381 -55.5351 -55.5351
   -18.8687 -18.8687 -18.1024 -18.1024 -17.8082 -17.8082 -17.8069 -17.8069
   -17.7051 -17.7051 -17.7046 -17.7046 -10.6519 -10.6519 -10.1287 -10.1287
    -9.6804  -9.6804  -9.5909  -9.5909  -9.4675  -9.4675  -9.0801  -9.0801
    -9.0749  -9.0749  -8.5650  -8.5650  -8.2890  -8.2890  -8.2470  -8.2470
    -8.1311  -8.1311  -7.9131  -7.9131  -7.6947  -7.6947  -7.3977  -7.3977
    -6.8981  -6.8981  -6.7262  -6.7262  -6.3528  -6.3528  -5.8601  -5.8601
    -5.1674  -5.1674  -5.1360  -5.1360  -5.0962  -5.0962  -5.0477  -5.0477
    -4.7100  -4.7100  -4.6775  -4.6775  -3.4617  -3.4617

     occupation numbers 
     1.0000   1.0000   1.0000   1.0000   1.0000   1.0000   1.0000   1.0000
     1.0000   1.0000   1.0000   1.0000   1.0000   1.0000   1.0000   1.0000
     1.0000   1.0000   1.0000   1.0000   1.0000   1.0000   1.0000   1.0000
     1.0000   1.0000   1.0000   1.0000   1.0000   1.0000   1.0000   1.0000
     1.0000   1.0000   1.0000   1.0000   1.0000   1.0000   1.0000   1.0000
     1.0000   1.0000   1.0000   1.0000   1.0000   1.0000   1.0000   1.0000
     1.0000   1.0000   1.0000   1.0000   1.0000   1.0000   1.0000   1.0000
     1.0000   1.0000   1.0000   1.0000   1.0000   1.0000   1.0000   1.0000
     1.0000   1.0000   1.0000   1.0000   1.0000   1.0000   0.0000   0.0000
     0.0000   0.0000   0.0000   0.0000   0.0000   0.0000

          k = 0.0000 0.3849 0.0000 ( 13752 PWs)   bands (ev):

   -85.8935 -85.8935 -85.8692 -85.8692 -56.5191 -56.5191 -56.4485 -56.4485
   -55.6104 -55.6104 -55.5638 -55.5638 -55.5216 -55.5216 -55.5078 -55.5078
   -18.6488 -18.6488 -18.0881 -18.0881 -17.9815 -17.9815 -17.8865 -17.8865
   -17.7583 -17.7583 -17.7339 -17.7339 -10.5923 -10.5923 -10.0548 -10.0548
    -9.7189  -9.7189  -9.5592  -9.5592  -9.3990  -9.3990  -8.9151  -8.9151
    -8.7601  -8.7601  -8.4183  -8.4182  -8.3888  -8.3888  -8.1048  -8.1048
    -7.9610  -7.9610  -7.8220  -7.8220  -7.5476  -7.5476  -7.4182  -7.4182
    -7.2171  -7.2171  -6.9628  -6.9628  -6.7011  -6.7011  -6.3518  -6.3518
    -5.3282  -5.3282  -5.0703  -5.0703  -4.9113  -4.9113  -4.7717  -4.7717
    -4.7294  -4.7294  -4.6332  -4.6332  -3.5222  -3.5222

     occupation numbers 
     1.0000   1.0000   1.0000   1.0000   1.0000   1.0000   1.0000   1.0000
     1.0000   1.0000   1.0000   1.0000   1.0000   1.0000   1.0000   1.0000
     1.0000   1.0000   1.0000   1.0000   1.0000   1.0000   1.0000   1.0000
     1.0000   1.0000   1.0000   1.0000   1.0000   1.0000   1.0000   1.0000
     1.0000   1.0000   1.0000   1.0000   1.0000   1.0000   1.0000   1.0000
     1.0000   1.0000   1.0000   1.0000   1.0000   1.0000   1.0000   1.0000
     1.0000   1.0000   1.0000   1.0000   1.0000   1.0000   1.0000   1.0000
     1.0000   1.0000   1.0000   1.0000   1.0000   1.0000   1.0000   1.0000
     1.0000   1.0000   1.0000   1.0000   1.0000   1.0000   0.0000   0.0000
     0.0000   0.0000   0.0000   0.0000   0.0000   0.0000

          k = 0.3333 0.5774 0.0000 ( 13773 PWs)   bands (ev):

   -85.8845 -85.8845 -85.8845 -85.8845 -56.4945 -56.4945 -56.4937 -56.4937
   -55.5847 -55.5847 -55.5781 -55.5781 -55.5446 -55.5446 -55.5370 -55.5370
   -18.3427 -18.3427 -18.3419 -18.3419 -18.0220 -18.0220 -17.8404 -17.8404
   -17.8403 -17.8403 -17.7645 -17.7645 -10.2156 -10.2156 -10.1708 -10.1708
    -9.6252  -9.6252  -9.5205  -9.5205  -9.4875  -9.4875  -9.0006  -9.0006
    -8.8180  -8.8180  -8.7944  -8.7944  -8.3158  -8.3158  -8.1983  -8.1983
    -7.7929  -7.7929  -7.6514  -7.6514  -7.4411  -7.4411  -7.2019  -7.2019
    -7.1579  -7.1579  -6.8879  -6.8879  -6.7732  -6.7732  -6.6613  -6.6613
    -5.1696  -5.1696  -5.1263  -5.1263  -5.0353  -5.0353  -4.9725  -4.9725
    -4.6397  -4.6397  -4.6242  -4.6242  -3.5027  -3.5027

     occupation numbers 
     1.0000   1.0000   1.0000   1.0000   1.0000   1.0000   1.0000   1.0000
     1.0000   1.0000   1.0000   1.0000   1.0000   1.0000   1.0000   1.0000
     1.0000   1.0000   1.0000   1.0000   1.0000   1.0000   1.0000   1.0000
     1.0000   1.0000   1.0000   1.0000   1.0000   1.0000   1.0000   1.0000
     1.0000   1.0000   1.0000   1.0000   1.0000   1.0000   1.0000   1.0000
     1.0000   1.0000   1.0000   1.0000   1.0000   1.0000   1.0000   1.0000
     1.0000   1.0000   1.0000   1.0000   1.0000   1.0000   1.0000   1.0000
     1.0000   1.0000   1.0000   1.0000   1.0000   1.0000   1.0000   1.0000
     1.0000   1.0000   1.0000   1.0000   1.0000   1.0000   0.0000   0.0000
     0.0000   0.0000   0.0000   0.0000   0.0000   0.0000

     highest occupied, lowest unoccupied level (ev):    -4.9113   -5.0477

!    total energy              =    -506.34896352 Ry
     estimated scf accuracy    <          9.8E-11 Ry

     The total energy is the sum of the following terms:
     one-electron contribution =   -2631.64106264 Ry
     hartree contribution      =    1302.85275261 Ry
     xc contribution           =     -98.48842447 Ry
     ewald contribution        =     920.92777097 Ry

     convergence has been achieved in  18 iterations

     Writing all to output data dir ./CrI3.save/ :
     XML data file, charge density, pseudopotentials, collected wavefunctions
 
     init_run     :      0.32s CPU      0.76s WALL (       1 calls)
     electrons    :      4.21s CPU      4.65s WALL (       1 calls)

     Called by init_run:
     wfcinit      :      0.10s CPU      0.41s WALL (       1 calls)
     wfcinit:atom :      0.00s CPU      0.00s WALL (       1 calls)
     wfcinit:wfcr :      0.10s CPU      0.34s WALL (       1 calls)
     potinit      :      0.05s CPU      0.09s WALL (       1 calls)
     hinit0       :      0.15s CPU      0.15s WALL (       1 calls)

     Called by electrons:
     c_bands      :      2.69s CPU      2.91s WALL (      18 calls)
     sum_band     :      0.52s CPU      0.58s WALL (      18 calls)
     v_of_rho     :      0.11s CPU      0.16s WALL (      19 calls)
     v_h          :      0.02s CPU      0.02s WALL (      19 calls)
     v_xc         :      0.09s CPU      0.13s WALL (      19 calls)
     mix_rho      :      0.71s CPU      0.75s WALL (      18 calls)

     Called by c_bands:
     init_us_2    :      0.01s CPU      0.02s WALL (      37 calls)
     cegterg      :      2.46s CPU      2.55s WALL (      18 calls)

     Called by sum_band:
     sum_band:wei :      0.00s CPU      0.01s WALL (      18 calls)
                                        0.01s GPU  (      18 calls)
     sum_band:loo :      0.31s CPU      0.32s WALL (      18 calls)
                                        0.32s GPU  (      18 calls)
     sum_band:buf :      0.02s CPU      0.02s WALL (      18 calls)
                                        0.02s GPU  (      18 calls)
     sum_band:ini :      0.01s CPU      0.01s WALL (      18 calls)
                                        0.01s GPU  (      18 calls)

     Called by *egterg:
     cdiaghg      :      0.32s CPU      0.51s WALL (      94 calls)
                                        0.51s GPU  (      94 calls)
     cegterg:over :      0.06s CPU      0.06s WALL (      76 calls)
     cegterg:upda :      0.04s CPU      0.04s WALL (      76 calls)
     cegterg:last :      0.01s CPU      0.01s WALL (      19 calls)
     h_psi        :      2.09s CPU      2.20s WALL (      95 calls)
                                        2.20s GPU  (      95 calls)
     g_psi        :      0.00s CPU      0.01s WALL (      76 calls)
                                        0.00s GPU  (      76 calls)

     Called by h_psi:
     h_psi:calbec :      0.03s CPU      0.13s WALL (      95 calls)
                                        0.13s GPU  (      95 calls)
     vloc_psi     :      2.00s CPU      2.02s WALL (      95 calls)
                                        2.02s GPU  (      95 calls)
     add_vuspsi   :      0.02s CPU      0.04s WALL (      95 calls)
                                        0.04s GPU  (      95 calls)

     General routines
     calbec       :      0.03s CPU      0.11s WALL (      95 calls)
     fft          :      0.00s CPU      0.06s WALL (     298 calls)
                                        0.05s GPU  (     298 calls)
     ffts         :      0.00s CPU      0.00s WALL (      72 calls)
                                        0.00s GPU  (      72 calls)
     fftw         :      0.16s CPU      0.73s WALL (   18068 calls)
                                        0.61s GPU  (   18068 calls)
 
     Parallel routines
 
     PWSCF        :      4.79s CPU      5.74s WALL

 
   This run was terminated on:  10:44: 9   7May2026            

=------------------------------------------------------------------------------=
   JOB DONE.
=------------------------------------------------------------------------------=
Warning: ieee_invalid is signaling
Warning: ieee_inexact is signaling
FORTRAN STOP
Warning: ieee_invalid is signaling
Warning: ieee_inexact is signaling
FORTRAN STOP
Warning: ieee_invalid is signaling
Warning: ieee_inexact is signaling
FORTRAN STOP
Warning: ieee_invalid is signaling
Warning: ieee_inexact is signaling
FORTRAN STOP
