
     Program PWSCF v.7.5 starts on 19Jun2026 at 23: 0:45 

     This program is part of the open-source Quantum ESPRESSO suite
     for quantum simulation of materials; please cite
         "P. Giannozzi et al., J. Phys.:Condens. Matter 21 395502 (2009);
         "P. Giannozzi et al., J. Phys.:Condens. Matter 29 465901 (2017);
         "P. Giannozzi et al., J. Chem. Phys. 152 154105 (2020);
          URL http://www.quantum-espresso.org", 
     in publications or presentations arising from this work. More details at
     http://www.quantum-espresso.org/quote

     Parallel version (MPI & OpenMP), running on     256 processor cores
     Number of MPI processes:                16
     Threads/MPI process:                    16

     MPI processes distributed on     4 nodes
     238879 MiB available memory on the printing compute node when the environment starts
 
     Reading input from nscf.in

     Current dimensions of program PWSCF are:
     Max number of different atomic species (ntypx) = 10
     Max number of k-points (npk) =  40000
     Max angular momentum in pseudopotentials (lmaxx) =  4

     Atomic positions and unit cell read from directory:
     ./VI3.save/
 

     Fixed quantization axis for GGA:     0.000000    0.000000    1.000000
 
     K-points division:     npool     =      16
     Subspace diagonalization in iterative solution of the eigenvalue problem:
     a serial algorithm will be used

 
     G-vector sticks info
     --------------------
     sticks:   dense  smooth     PW     G-vecs:    dense   smooth      PW
     Sum        3679    3679   1027               475783   475783   69865
 
     Using Slab Decomposition
 


     bravais-lattice index     =            0
     lattice parameter (alat)  =      12.9257  a.u.
     unit-cell volume          =    4921.6582 (a.u.)^3
     number of atoms/cell      =            8
     number of atomic types    =            2
     number of electrons       =        68.00
     number of Kohn-Sham states=          600
     kinetic-energy cutoff     =      80.0000  Ry
     charge density cutoff     =     320.0000  Ry
     Exchange-correlation= PBE
                           (   1   4   3   4   0   0   0)
     Noncollinear calculation with spin-orbit


     GPU acceleration is ACTIVE.  4 visible GPUs per MPI rank


     GPU used by master process:

        Device Number: 0
        Device name: NVIDIA A100-SXM4-80GB
        Compute capability : 80
        Ratio of single to double precision performance  : 2
        Memory Clock Rate (KHz): 1593000
        Memory Bus Width (bits): 5120
        Peak Memory Bandwidth (GB/s): ******
     Hubbard projectors: ortho-atomic
     Hubbard parameters of DFT+U (Dudarev formulation) in eV:
     U(V-3d) =  5.0000

     Internal variables: lda_plus_u = T, lda_plus_u_kind = 0

     Internal variables: orbital_resolved = F, hub_pot_fix = F, apply_U =  F

     celldm(1)=  12.925727  celldm(2)=   0.000000  celldm(3)=   0.000000
     celldm(4)=   0.000000  celldm(5)=   0.000000  celldm(6)=   0.000000

     crystal axes: (cart. coord. in units of alat)
               a(1) = (   1.000000   0.000000   0.000000 )  
               a(2) = (  -0.500000   0.866024   0.000000 )  
               a(3) = (   0.000000   0.000000   2.631579 )  

     reciprocal axes: (cart. coord. in units 2 pi/alat)
               b(1) = (  1.000000  0.577351 -0.000000 )  
               b(2) = (  0.000000  1.154702  0.000000 )  
               b(3) = (  0.000000 -0.000000  0.380000 )  


     PseudoPot. # 1 for V  read from file:
     ./V.upf
     MD5 check sum: f3eaf2f8b12999b28b8a4e139b19fe14
     Pseudo is Norm-conserving + core correction, Zval = 13.0
     Generated using ONCVPSP code by D. R. Hamann
     Using radial grid of 1536 points, 10 beta functions with: 
                l(1) =   0
                l(2) =   0
                l(3) =   1
                l(4) =   1
                l(5) =   1
                l(6) =   1
                l(7) =   2
                l(8) =   2
                l(9) =   2
               l(10) =   2

     PseudoPot. # 2 for I  read from file:
     ./I.upf
     MD5 check sum: 301f7009ca0a2b18b0adf53dca02d42f
     Pseudo is Norm-conserving + core correction, Zval =  7.0
     Generated using ONCVPSP code by D. R. Hamann
     Using radial grid of 1210 points, 10 beta functions with: 
                l(1) =   0
                l(2) =   0
                l(3) =   1
                l(4) =   1
                l(5) =   1
                l(6) =   1
                l(7) =   2
                l(8) =   2
                l(9) =   2
               l(10) =   2

     atomic species   valence    mass     pseudopotential
     V                13.00    50.94200     V ( 1.00)
     I                 7.00   126.90400     I ( 1.00)

     No symmetry found


                                    s                        frac. trans.

      isym =  1     identity                                     

 Time Reversal             0
 cryst.   s( 1) = (     1          0          0      )
                  (     0          1          0      )
                  (     0          0          1      )

 cart.    s( 1) = (  1.0000000 -0.0000000  0.0000000 )
                  (  0.0000000  1.0000000  0.0000000 )
                  (  0.0000000  0.0000000  1.0000000 )


   Cartesian axes

     site n.     atom                  positions (alat units)
         1        V      tau(   1) = (   0.0000058   0.5773465   0.0011577  )
         2        V      tau(   2) = (   0.4999942   0.2886779   2.6304212  )
         3        I      tau(   3) = (  -0.1578966   0.8655247   2.3849343  )
         4        I      tau(   4) = (  -0.1706086   0.2965244   2.3849306  )
         5        I      tau(   5) = (   0.3285072   0.5700039   2.3849413  )
         6        I      tau(   6) = (   0.6578967   0.0004997   0.2466446  )
         7        I      tau(   7) = (   0.6706085   0.5695001   0.2466483  )
         8        I      tau(   8) = (   0.1714928   0.2960205   0.2466376  )

   Crystallographic axes

     site n.     atom                  positions (cryst. coord.)
         1        V      tau(   1) = (  0.3333373  0.6666631  0.0004399  )
         2        V      tau(   2) = (  0.6666627  0.3333369  0.9995601  )
         3        I      tau(   3) = (  0.3418149  0.9994230  0.9062750  )
         4        I      tau(   4) = (  0.0005901  0.3423972  0.9062736  )
         5        I      tau(   5) = (  0.6575995  0.6581846  0.9062777  )
         6        I      tau(   6) = (  0.6581851  0.0005770  0.0937249  )
         7        I      tau(   7) = (  0.9994099  0.6576028  0.0937263  )
         8        I      tau(   8) = (  0.3424005  0.3418154  0.0937223  )

     number of k points=    36
                       cart. coord. in units 2pi/alat
        k(    1) = (   0.0000000   0.0000000   0.0000000), wk =   0.0277778
        k(    2) = (   0.0000000   0.1924503   0.0000000), wk =   0.0277778
        k(    3) = (   0.0000000   0.3849006   0.0000000), wk =   0.0277778
        k(    4) = (   0.0000000  -0.5773509   0.0000000), wk =   0.0277778
        k(    5) = (   0.0000000  -0.3849006   0.0000000), wk =   0.0277778
        k(    6) = (   0.0000000  -0.1924503   0.0000000), wk =   0.0277778
        k(    7) = (   0.1666667   0.0962252   0.0000000), wk =   0.0277778
        k(    8) = (   0.1666667   0.2886755   0.0000000), wk =   0.0277778
        k(    9) = (   0.1666667   0.4811258   0.0000000), wk =   0.0277778
        k(   10) = (   0.1666667  -0.4811258   0.0000000), wk =   0.0277778
        k(   11) = (   0.1666667  -0.2886755   0.0000000), wk =   0.0277778
        k(   12) = (   0.1666667  -0.0962252   0.0000000), wk =   0.0277778
        k(   13) = (   0.3333333   0.1924503   0.0000000), wk =   0.0277778
        k(   14) = (   0.3333333   0.3849006   0.0000000), wk =   0.0277778
        k(   15) = (   0.3333333   0.5773509   0.0000000), wk =   0.0277778
        k(   16) = (   0.3333333  -0.3849006   0.0000000), wk =   0.0277778
        k(   17) = (   0.3333333  -0.1924503   0.0000000), wk =   0.0277778
        k(   18) = (   0.3333333  -0.0000000   0.0000000), wk =   0.0277778
        k(   19) = (  -0.5000000  -0.2886755   0.0000000), wk =   0.0277778
        k(   20) = (  -0.5000000  -0.0962252   0.0000000), wk =   0.0277778
        k(   21) = (  -0.5000000   0.0962252   0.0000000), wk =   0.0277778
        k(   22) = (  -0.5000000  -0.8660264   0.0000000), wk =   0.0277778
        k(   23) = (  -0.5000000  -0.6735761   0.0000000), wk =   0.0277778
        k(   24) = (  -0.5000000  -0.4811258   0.0000000), wk =   0.0277778
        k(   25) = (  -0.3333333  -0.1924503   0.0000000), wk =   0.0277778
        k(   26) = (  -0.3333333   0.0000000   0.0000000), wk =   0.0277778
        k(   27) = (  -0.3333333   0.1924503   0.0000000), wk =   0.0277778
        k(   28) = (  -0.3333333  -0.7698012   0.0000000), wk =   0.0277778
        k(   29) = (  -0.3333333  -0.5773509   0.0000000), wk =   0.0277778
        k(   30) = (  -0.3333333  -0.3849006   0.0000000), wk =   0.0277778
        k(   31) = (  -0.1666667  -0.0962252   0.0000000), wk =   0.0277778
        k(   32) = (  -0.1666667   0.0962252   0.0000000), wk =   0.0277778
        k(   33) = (  -0.1666667   0.2886755   0.0000000), wk =   0.0277778
        k(   34) = (  -0.1666667  -0.6735761   0.0000000), wk =   0.0277778
        k(   35) = (  -0.1666667  -0.4811258   0.0000000), wk =   0.0277778
        k(   36) = (  -0.1666667  -0.2886755   0.0000000), wk =   0.0277778

                       cryst. coord.
        k(    1) = (   0.0000000   0.0000000   0.0000000), wk =   0.0277778
        k(    2) = (   0.0000000   0.1666667   0.0000000), wk =   0.0277778
        k(    3) = (   0.0000000   0.3333333   0.0000000), wk =   0.0277778
        k(    4) = (   0.0000000  -0.5000000   0.0000000), wk =   0.0277778
        k(    5) = (   0.0000000  -0.3333333   0.0000000), wk =   0.0277778
        k(    6) = (   0.0000000  -0.1666667   0.0000000), wk =   0.0277778
        k(    7) = (   0.1666667   0.0000000   0.0000000), wk =   0.0277778
        k(    8) = (   0.1666667   0.1666667   0.0000000), wk =   0.0277778
        k(    9) = (   0.1666667   0.3333333   0.0000000), wk =   0.0277778
        k(   10) = (   0.1666667  -0.5000000   0.0000000), wk =   0.0277778
        k(   11) = (   0.1666667  -0.3333333   0.0000000), wk =   0.0277778
        k(   12) = (   0.1666667  -0.1666667   0.0000000), wk =   0.0277778
        k(   13) = (   0.3333333   0.0000000   0.0000000), wk =   0.0277778
        k(   14) = (   0.3333333   0.1666667   0.0000000), wk =   0.0277778
        k(   15) = (   0.3333333   0.3333333   0.0000000), wk =   0.0277778
        k(   16) = (   0.3333333  -0.5000000   0.0000000), wk =   0.0277778
        k(   17) = (   0.3333333  -0.3333333   0.0000000), wk =   0.0277778
        k(   18) = (   0.3333333  -0.1666667   0.0000000), wk =   0.0277778
        k(   19) = (  -0.5000000   0.0000000   0.0000000), wk =   0.0277778
        k(   20) = (  -0.5000000   0.1666667   0.0000000), wk =   0.0277778
        k(   21) = (  -0.5000000   0.3333333   0.0000000), wk =   0.0277778
        k(   22) = (  -0.5000000  -0.5000000   0.0000000), wk =   0.0277778
        k(   23) = (  -0.5000000  -0.3333333   0.0000000), wk =   0.0277778
        k(   24) = (  -0.5000000  -0.1666667   0.0000000), wk =   0.0277778
        k(   25) = (  -0.3333333   0.0000000   0.0000000), wk =   0.0277778
        k(   26) = (  -0.3333333   0.1666667   0.0000000), wk =   0.0277778
        k(   27) = (  -0.3333333   0.3333333   0.0000000), wk =   0.0277778
        k(   28) = (  -0.3333333  -0.5000000   0.0000000), wk =   0.0277778
        k(   29) = (  -0.3333333  -0.3333333   0.0000000), wk =   0.0277778
        k(   30) = (  -0.3333333  -0.1666667   0.0000000), wk =   0.0277778
        k(   31) = (  -0.1666667  -0.0000000   0.0000000), wk =   0.0277778
        k(   32) = (  -0.1666667   0.1666667   0.0000000), wk =   0.0277778
        k(   33) = (  -0.1666667   0.3333333   0.0000000), wk =   0.0277778
        k(   34) = (  -0.1666667  -0.5000000   0.0000000), wk =   0.0277778
        k(   35) = (  -0.1666667  -0.3333333   0.0000000), wk =   0.0277778
        k(   36) = (  -0.1666667  -0.1666667   0.0000000), wk =   0.0277778

     Dense  grid:   475783 G-vectors     FFT dimensions: (  75,  75, 200)

     Dynamical RAM for                 wfc:    1088.93 MB

     Dynamical RAM for     wfc (w. buffer):    4355.71 MB

     Dynamical RAM for             U proj.:      79.85 MB

     Dynamical RAM for  U proj. (w. buff.):     319.42 MB

     Dynamical RAM for           str. fact:      14.52 MB

     Dynamical RAM for           local pot:       0.00 MB

     Dynamical RAM for          nlocal pot:     246.82 MB

     Dynamical RAM for                qrad:       7.52 MB

     Dynamical RAM for          rho,v,vnew:     190.12 MB

     Dynamical RAM for           G-vectors:      30.85 MB

     Dynamical RAM for          h,s,v(r/c):     263.67 MB

     Dynamical RAM for          <psi|beta>:       4.98 MB

     Dynamical RAM for                 psi:    4355.71 MB

     Dynamical RAM for                hpsi:    4355.71 MB

     Dynamical RAM for      wfcinit/wfcrot:    1641.64 MB

     Estimated static dynamical RAM per process >       5.13 GB

     Estimated max dynamical RAM per process >      13.90 GB

     Estimated total dynamical RAM >     222.43 GB
 ----2D----2D----2D----2D----2D----2D----2D----2D----2D----2D----2D----2D
  The code is running with the 2D cutoff
  Please refer to:
  Sohier, T., Calandra, M., & Mauri, F. (2017), 
  Density functional perturbation theory for gated two-dimensional heterostructures:
  Theoretical developments and application to flexural phonons in graphene.
  Physical Review B, 96(7), 75448. https://doi.org/10.1103/PhysRevB.96.075448
 ----2D----2D----2D----2D----2D----2D----2D----2D----2D----2D----2D----2D
     Generating pointlists ...
     new r_m :   0.1695 (alat units)  2.1907 (a.u.) for type    1
     new r_m :   0.1695 (alat units)  2.1907 (a.u.) for type    2

     The potential is recalculated from file :
     ./VI3.save/charge-density


     negative rho (up, down):  0.000E+00 3.911E-04

     HUBBARD ENERGY =    0.0000  (Ry)

     STARTING HUBBARD OCCUPATIONS:

     ================= HUBBARD OCCUPATIONS ================
     ------------------------ ATOM    1 ------------------------
     Tr[ns(  1)] (up, down, total) =   0.00037  1.99963  2.00000
     eigenvalues:
      -0.000 -0.000 -0.000 -0.000  0.000  0.000  0.000  0.000  1.000  1.000
     eigenvectors (columns):
       0.005  0.325 -0.354  0.003  0.056 -0.143 -0.199 -0.002  0.004  0.010
      -0.000 -0.004  0.079 -0.005  0.868 -0.307  0.065  0.000  0.001  0.003
       0.001 -0.189 -0.531  0.003  0.320  0.470  0.090  0.002 -0.004  0.000
      -0.003  0.090  0.396 -0.005  0.244 -0.191  0.015  0.002 -0.002 -0.004
      -0.011 -0.412  0.197 -0.002  0.068  0.335  0.589  0.005 -0.005  0.001
       0.000  0.001 -0.006 -0.404 -0.000  0.001  0.000  0.000 -0.000  0.000
       0.480 -0.006  0.003 -0.000 -0.003 -0.004  0.014 -0.129  0.317  0.713
      -0.115  0.002  0.004 -0.000  0.005  0.015 -0.003 -0.534  0.744 -0.369
      -0.729  0.002  0.004 -0.000 -0.000  0.007 -0.015  0.198  0.207  0.463
      -0.218 -0.001  0.002 -0.000  0.001  0.002 -0.004 -0.806 -0.502  0.225
     occupations, | n_(i1, i2)^(sigma1, sigma2) |:
       0.000  0.000  0.000  0.000  0.000  0.000  0.009  0.009  0.005  0.005
       0.000  0.000  0.000  0.000  0.000  0.000  0.003  0.003  0.002  0.002
       0.000  0.000  0.000  0.000  0.000  0.000  0.003  0.003  0.002  0.002
       0.000  0.000  0.000  0.000  0.000  0.000  0.004  0.004  0.003  0.003
       0.000  0.000  0.000  0.000  0.000  0.000  0.004  0.004  0.003  0.003
       0.000  0.000  0.000  0.000  0.000  0.000  0.000  0.000  0.000  0.000
       0.009  0.003  0.003  0.004  0.004  0.000  0.698  0.049  0.456  0.022
       0.009  0.003  0.003  0.004  0.004  0.000  0.049  0.698  0.022  0.456
       0.005  0.002  0.002  0.003  0.003  0.000  0.456  0.022  0.302  0.049
       0.005  0.002  0.002  0.003  0.003  0.000  0.022  0.456  0.049  0.302
     Atomic magnetic moment mx, my, mz =    -0.000004    0.000011   -1.999264
     ------------------------ ATOM    2 ------------------------
     Tr[ns(  2)] (up, down, total) =   0.00037  1.99963  2.00000
     eigenvalues:
      -0.000 -0.000 -0.000  0.000  0.000  0.000  0.000  0.000  1.000  1.000
     eigenvectors (columns):
      -0.347 -0.123  0.311  0.000 -0.102 -0.376 -0.000  0.006  0.012  0.002
      -0.301 -0.052 -0.309  0.002 -0.679 -0.102  0.000  0.000  0.003  0.000
       0.165 -0.129 -0.090 -0.008 -0.309  0.531  0.003 -0.006 -0.000  0.004
       0.310 -0.389  0.150 -0.001 -0.323 -0.165  0.002 -0.003 -0.004 -0.001
       0.266 -0.504 -0.334  0.002  0.176  0.056  0.004 -0.004 -0.000  0.005
       0.001 -0.000  0.004  0.751  0.001  0.002  0.000 -0.000 -0.000  0.000
       0.005  0.002 -0.001 -0.000  0.001 -0.002  0.057 -0.524  0.824  0.107
      -0.001 -0.003  0.001  0.000 -0.003  0.011 -0.541 -0.077  0.116 -0.821
       0.011 -0.004 -0.002  0.000 -0.001  0.008 -0.084  0.795  0.536  0.068
       0.001 -0.001  0.000 -0.000 -0.001 -0.001 -0.831 -0.088 -0.070  0.545
     occupations, | n_(i1, i2)^(sigma1, sigma2) |:
       0.000  0.000  0.000  0.000  0.000  0.000  0.009  0.009  0.005  0.005
       0.000  0.000  0.000  0.000  0.000  0.000  0.003  0.003  0.002  0.002
       0.000  0.000  0.000  0.000  0.000  0.000  0.003  0.003  0.002  0.002
       0.000  0.000  0.000  0.000  0.000  0.000  0.004  0.004  0.003  0.003
       0.000  0.000  0.000  0.000  0.000  0.000  0.004  0.004  0.003  0.003
       0.000  0.000  0.000  0.000  0.000  0.000  0.000  0.000  0.000  0.000
       0.009  0.003  0.003  0.004  0.004  0.000  0.698  0.049  0.456  0.022
       0.009  0.003  0.003  0.004  0.004  0.000  0.049  0.698  0.022  0.456
       0.005  0.002  0.002  0.003  0.003  0.000  0.456  0.022  0.302  0.049
       0.005  0.002  0.002  0.003  0.003  0.000  0.022  0.456  0.049  0.302
     Atomic magnetic moment mx, my, mz =    -0.000007    0.000002   -1.999264

     Number of occupied Hubbard levels =    4.0000

     Atomic wfc used for Hubbard projectors are orthogonalized

     Starting wfcs are   88 randomized atomic wfcs +  512 random wfcs

     Band Structure Calculation
     Davidson diagonalization with overlap

     Computing kpt #:     1  of     3 on this pool
     total cpu time spent up to now is       32.9 secs

     Computing kpt #:     2  of     3 on this pool
     total cpu time spent up to now is       61.4 secs

     Computing kpt #:     3  of     3 on this pool
     total cpu time spent up to now is       86.4 secs

     ethr =  1.47E-09,  avg # of iterations = 20.7

     total cpu time spent up to now is       90.0 secs

     End of band structure calculation

          k = 0.0000 0.0000 0.0000 ( 59461 PWs)   bands (ev):

   -73.4619 -73.4614 -71.3728 -71.3723 -47.5890 -47.5851 -47.2965 -47.2954
   -46.9701 -46.9658 -45.3669 -45.3622 -45.0708 -45.0693 -44.8947 -44.8894
   -18.4811 -18.4571 -17.8928 -17.8858 -17.6015 -17.6002 -17.5133 -17.5124
   -17.4185 -17.4168 -17.3383 -17.3376 -11.5770 -11.5650 -11.2973 -11.2688
   -10.1849 -10.0139  -9.8787  -9.7323  -9.3188  -9.2412  -9.1458  -9.1341
    -9.1042  -8.8678  -8.7576  -8.7543  -8.5448  -8.4824  -8.2247  -8.1726
    -7.9830  -7.8633  -7.5002  -7.4638  -7.4491  -7.4365  -7.3208  -7.1564
    -6.8328  -6.6906  -6.5901  -6.3528  -6.2467  -6.1539  -6.0937  -6.0904
    -6.0148  -5.6248  -5.5112  -5.5038  -5.1705  -5.1542  -5.0606  -5.0475
    -4.9963  -4.7714  -4.0794  -4.0240  -4.0114  -3.9996  -3.8483  -3.8002
    -2.4044  -2.3985  -2.3852  -2.2535  -1.3746  -1.3471  -1.1955  -0.9512
    -0.4701  -0.3541   0.0926   0.1182   0.2848   0.3505   0.3611   0.4142
     0.5262   0.5444   0.6007   0.6031   0.8281   0.8295   0.9406   1.0281
     1.8060   1.9192   2.2732   2.2894   2.3982   2.4145   2.4496   2.4685
     2.7882   2.7930   2.8347   2.8791   2.9540   2.9928   2.9963   3.0130
     3.0988   3.1263   3.1635   3.2060   3.2728   3.3079   3.4966   3.5757
     3.6280   3.6680   3.7307   3.7834   3.8630   3.9643   4.1380   4.1664
     4.1721   4.2089   4.2107   4.2380   4.2396   4.2548   4.3111   4.3259
     4.9354   4.9981   4.9995   5.0388   5.0586   5.0762   5.1366   5.1555
     5.1711   5.2029   5.2576   5.2616   5.3472   5.3512   5.9380   5.9612
     5.9860   5.9870   6.1295   6.1440   6.1674   6.2070   6.2178   6.2294
     6.2916   6.3464   6.5536   6.5788   6.6427   6.6735   6.6742   6.6875
     6.7396   6.7508   7.0743   7.0902   7.1605   7.1785   7.5970   7.6011
     7.6138   7.6719   7.6753   7.6912   7.8271   7.8285   7.8930   7.8934
     8.5287   8.6081   8.6099   8.6468   8.8448   8.8600   9.1033   9.1383
     9.2102   9.2440   9.4379   9.4485   9.5047   9.5140   9.7459   9.7519
     9.7774   9.7783   9.9337   9.9786  10.4532  10.4951  10.5376  10.5422
    10.5834  10.6042  10.6413  10.7197  10.8410  10.9246  11.1713  11.1829
    11.4467  11.4668  11.5385  11.5602  11.5982  11.6098  11.6177  11.6904
    11.7032  11.7534  11.7887  11.8186  11.8381  11.8862  12.1243  12.1666
    12.1777  12.1795  12.2144  12.2530  12.2558  12.2579  12.3175  12.3181
    12.3979  12.3998  12.7342  12.7516  12.7689  12.7868  12.8351  12.8778
    12.9128  12.9390  13.0116  13.0183  13.1794  13.2304  13.2366  13.3724
    13.4160  13.4397  13.4456  13.4524  13.4532  13.4549  13.4939  13.4970
    13.8371  13.8438  13.8568  13.8782  13.8850  13.8936  14.0809  14.1064
    14.1221  14.1372  14.1413  14.1774  14.1807  14.1947  14.2202  14.2566
    14.3699  14.3851  14.3902  14.4442  14.4465  14.4687  14.4873  14.5387
    14.5813  14.5911  14.5956  14.6237  14.6250  14.6650  14.7609  14.7874
    14.8079  14.8843  14.8952  14.9747  15.0240  15.0752  15.1044  15.1114
    15.2822  15.2904  15.3275  15.3357  15.3469  15.3494  15.4178  15.4182
    15.5847  15.6404  15.8302  15.8345  15.8545  15.8717  15.8934  15.9101
    15.9490  15.9668  15.9873  15.9931  16.4066  16.4363  16.4485  16.4541
    16.5038  16.5126  16.9804  17.0216  17.0794  17.0984  17.1098  17.1314
    17.1809  17.1945  17.2295  17.2498  17.2876  17.2987  17.3311  17.3662
    17.6005  17.6047  17.7023  17.7143  17.7472  17.7532  17.7894  17.7977
    17.8154  17.8704  18.0286  18.0360  18.0638  18.0645  18.0810  18.0867
    18.1073  18.1086  18.2648  18.2704  18.2713  18.2788  18.3105  18.3420
    18.3484  18.3516  18.3626  18.3647  18.3915  18.3938  18.5547  18.5648
    18.6164  18.6259  18.6763  18.8220  19.0057  19.0093  19.0494  19.0521
    19.2342  19.2748  19.2838  19.2841  19.3177  19.3434  19.3452  19.3767
    19.4413  19.4462  19.4834  19.4849  19.8063  19.8439  19.8460  19.8788
    19.9705  19.9751  20.0575  20.0600  20.0761  20.1125  20.1787  20.1979
    20.2273  20.2449  20.3186  20.3459  20.3481  20.4104  20.4517  20.4982
    20.7956  20.8078  20.8366  20.8471  20.8505  20.8587  20.9037  20.9097
    20.9207  20.9241  20.9421  20.9484  20.9760  20.9994  21.0417  21.0449
    21.2175  21.2426  21.2733  21.3012  21.3229  21.3808  21.4446  21.4496
    21.4643  21.4643  21.4684  21.5116  21.5166  21.5456  21.5481  21.5635
    21.6847  21.7032  21.7659  21.7823  21.9052  21.9403  21.9578  22.0926
    22.2072  22.2099  22.2589  22.2604  22.2606  22.2651  22.2725  22.2771
    22.3984  22.4798  22.5082  22.5094  22.5568  22.5591  22.6150  22.6221
    22.6894  22.7073  22.7102  22.7333  22.8588  22.8903  22.9695  23.0019
    23.1278  23.1441  23.1648  23.1994  23.2040  23.2164  23.2191  23.2217
    23.3001  23.3080  23.3353  23.3368  23.4321  23.4398  23.4483  23.4881
    23.5342  23.5379  23.5714  23.5801  23.5860  23.5884  23.9495  23.9852
    23.9963  24.0193  24.0542  24.0649  24.1344  24.1779  24.3648  24.3825
    24.4300  24.4425  24.4667  24.4885  24.5425  24.5467  24.5623  24.6246
    24.6952  24.7578  24.8210  24.8382  24.8438  24.8568  24.9429  24.9809
    25.1177  25.1513  25.2091  25.2149  25.2655  25.2672  25.3029  25.3186
    25.3423  25.3899  25.4225  25.4454  25.4829  25.5141  25.5799  25.5864
    25.5934  25.6205  25.6274  25.6402  25.7163  25.7434  25.7837  25.8104
    25.8247  25.8714  25.8995  25.9225  25.9289  25.9396  25.9642  25.9710
    26.1955  26.2569  26.2884  26.2927  26.3067  26.3098  26.3479  26.3859
    26.4037  26.4161  26.5450  26.5660  26.6771  26.7058  26.7265  26.7454
    26.7467  26.7631  26.7935  26.7953  26.8284  26.8413  26.9440  26.9696
    26.9785  27.0215  27.0282  27.0383  27.0430  27.0498  27.1000  27.1266

     occupation numbers 
     1.0000   1.0000   1.0000   1.0000   1.0000   1.0000   1.0000   1.0000
     1.0000   1.0000   1.0000   1.0000   1.0000   1.0000   1.0000   1.0000
     1.0000   1.0000   1.0000   1.0000   1.0000   1.0000   1.0000   1.0000
     1.0000   1.0000   1.0000   1.0000   1.0000   1.0000   1.0000   1.0000
     1.0000   1.0000   1.0000   1.0000   1.0000   1.0000   1.0000   1.0000
     1.0000   1.0000   1.0000   1.0000   1.0000   1.0000   1.0000   1.0000
     1.0000   1.0000   1.0000   1.0000   1.0000   1.0000   1.0000   1.0000
     1.0000   1.0000   1.0000   1.0000   1.0000   1.0000   1.0000   1.0000
     1.0000   1.0000   1.0000   1.0000   0.0000   0.0000   0.0000   0.0000
     0.0000   0.0000   0.0000   0.0000   0.0000   0.0000   0.0000   0.0000
     0.0000   0.0000   0.0000   0.0000   0.0000   0.0000   0.0000   0.0000
     0.0000   0.0000   0.0000   0.0000   0.0000   0.0000   0.0000   0.0000
     0.0000   0.0000   0.0000   0.0000   0.0000   0.0000   0.0000   0.0000
     0.0000   0.0000   0.0000   0.0000   0.0000   0.0000   0.0000   0.0000
     0.0000   0.0000   0.0000   0.0000   0.0000   0.0000   0.0000   0.0000
     0.0000   0.0000   0.0000   0.0000   0.0000   0.0000   0.0000   0.0000
     0.0000   0.0000   0.0000   0.0000   0.0000   0.0000   0.0000   0.0000
     0.0000   0.0000   0.0000   0.0000   0.0000   0.0000   0.0000   0.0000
     0.0000   0.0000   0.0000   0.0000   0.0000   0.0000   0.0000   0.0000
     0.0000   0.0000   0.0000   0.0000   0.0000   0.0000   0.0000   0.0000
     0.0000   0.0000   0.0000   0.0000   0.0000   0.0000   0.0000   0.0000
     0.0000   0.0000   0.0000   0.0000   0.0000   0.0000   0.0000   0.0000
     0.0000   0.0000   0.0000   0.0000   0.0000   0.0000   0.0000   0.0000
     0.0000   0.0000   0.0000   0.0000   0.0000   0.0000   0.0000   0.0000
     0.0000   0.0000   0.0000   0.0000   0.0000   0.0000   0.0000   0.0000
     0.0000   0.0000   0.0000   0.0000   0.0000   0.0000   0.0000   0.0000
     0.0000   0.0000   0.0000   0.0000   0.0000   0.0000   0.0000   0.0000
     0.0000   0.0000   0.0000   0.0000   0.0000   0.0000   0.0000   0.0000
     0.0000   0.0000   0.0000   0.0000   0.0000   0.0000   0.0000   0.0000
     0.0000   0.0000   0.0000   0.0000   0.0000   0.0000   0.0000   0.0000
     0.0000   0.0000   0.0000   0.0000   0.0000   0.0000   0.0000   0.0000
     0.0000   0.0000   0.0000   0.0000   0.0000   0.0000   0.0000   0.0000
     0.0000   0.0000   0.0000   0.0000   0.0000   0.0000   0.0000   0.0000
     0.0000   0.0000   0.0000   0.0000   0.0000   0.0000   0.0000   0.0000
     0.0000   0.0000   0.0000   0.0000   0.0000   0.0000   0.0000   0.0000
     0.0000   0.0000   0.0000   0.0000   0.0000   0.0000   0.0000   0.0000
     0.0000   0.0000   0.0000   0.0000   0.0000   0.0000   0.0000   0.0000
     0.0000   0.0000   0.0000   0.0000   0.0000   0.0000   0.0000   0.0000
     0.0000   0.0000   0.0000   0.0000   0.0000   0.0000   0.0000   0.0000
     0.0000   0.0000   0.0000   0.0000   0.0000   0.0000   0.0000   0.0000
     0.0000   0.0000   0.0000   0.0000   0.0000   0.0000   0.0000   0.0000
     0.0000   0.0000   0.0000   0.0000   0.0000   0.0000   0.0000   0.0000
     0.0000   0.0000   0.0000   0.0000   0.0000   0.0000   0.0000   0.0000
     0.0000   0.0000   0.0000   0.0000   0.0000   0.0000   0.0000   0.0000
     0.0000   0.0000   0.0000   0.0000   0.0000   0.0000   0.0000   0.0000
     0.0000   0.0000   0.0000   0.0000   0.0000   0.0000   0.0000   0.0000
     0.0000   0.0000   0.0000   0.0000   0.0000   0.0000   0.0000   0.0000
     0.0000   0.0000   0.0000   0.0000   0.0000   0.0000   0.0000   0.0000
     0.0000   0.0000   0.0000   0.0000   0.0000   0.0000   0.0000   0.0000
     0.0000   0.0000   0.0000   0.0000   0.0000   0.0000   0.0000   0.0000
     0.0000   0.0000   0.0000   0.0000   0.0000   0.0000   0.0000   0.0000
     0.0000   0.0000   0.0000   0.0000   0.0000   0.0000   0.0000   0.0000
     0.0000   0.0000   0.0000   0.0000   0.0000   0.0000   0.0000   0.0000
     0.0000   0.0000   0.0000   0.0000   0.0000   0.0000   0.0000   0.0000
     0.0000   0.0000   0.0000   0.0000   0.0000   0.0000   0.0000   0.0000
     0.0000   0.0000   0.0000   0.0000   0.0000   0.0000   0.0000   0.0000
     0.0000   0.0000   0.0000   0.0000   0.0000   0.0000   0.0000   0.0000
     0.0000   0.0000   0.0000   0.0000   0.0000   0.0000   0.0000   0.0000
     0.0000   0.0000   0.0000   0.0000   0.0000   0.0000   0.0000   0.0000
     0.0000   0.0000   0.0000   0.0000   0.0000   0.0000   0.0000   0.0000
     0.0000   0.0000   0.0000   0.0000   0.0000   0.0000   0.0000   0.0000
     0.0000   0.0000   0.0000   0.0000   0.0000   0.0000   0.0000   0.0000
     0.0000   0.0000   0.0000   0.0000   0.0000   0.0000   0.0000   0.0000
     0.0000   0.0000   0.0000   0.0000   0.0000   0.0000   0.0000   0.0000
     0.0000   0.0000   0.0000   0.0000   0.0000   0.0000   0.0000   0.0000
     0.0000   0.0000   0.0000   0.0000   0.0000   0.0000   0.0000   0.0000
     0.0000   0.0000   0.0000   0.0000   0.0000   0.0000   0.0000   0.0000
     0.0000   0.0000   0.0000   0.0000   0.0000   0.0000   0.0000   0.0000
     0.0000   0.0000   0.0000   0.0000   0.0000   0.0000   0.0000   0.0000
     0.0000   0.0000   0.0000   0.0000   0.0000   0.0000   0.0000   0.0000
     0.0000   0.0000   0.0000   0.0000   0.0000   0.0000   0.0000   0.0000
     0.0000   0.0000   0.0000   0.0000   0.0000   0.0000   0.0000   0.0000
     0.0000   0.0000   0.0000   0.0000   0.0000   0.0000   0.0000   0.0000
     0.0000   0.0000   0.0000   0.0000   0.0000   0.0000   0.0000   0.0000
     0.0000   0.0000   0.0000   0.0000   0.0000   0.0000   0.0000   0.0000

          k = 0.0000 0.1925 0.0000 ( 59490 PWs)   bands (ev):

   -73.4619 -73.4615 -71.3728 -71.3723 -47.5888 -47.5853 -47.2965 -47.2955
   -46.9699 -46.9660 -45.3666 -45.3625 -45.0707 -45.0694 -44.8944 -44.8898
   -18.4221 -18.3980 -17.8729 -17.8423 -17.6257 -17.6113 -17.5717 -17.5260
   -17.4997 -17.4586 -17.3480 -17.3435 -11.6174 -11.5927 -11.2835 -11.2540
   -10.1933 -10.0492  -9.8523  -9.7164  -9.3250  -9.2987  -9.2475  -9.2153
    -9.0341  -8.9043  -8.7178  -8.6426  -8.2473  -8.1779  -7.9754  -7.8723
    -7.8366  -7.7426  -7.6323  -7.5622  -7.4703  -7.4178  -7.1875  -7.1466
    -6.9096  -6.7648  -6.6858  -6.4735  -6.3609  -6.3493  -6.2286  -6.1835
    -6.0965  -5.7783  -5.6498  -5.5794  -5.1453  -5.1283  -5.0885  -5.0638
    -5.0126  -4.9385  -4.0937  -4.0513  -3.9793  -3.9110  -3.8584  -3.8094
    -2.4932  -2.4365  -2.3302  -2.2760  -1.3159  -1.1056  -0.9275  -0.9063
    -0.0457   0.0229   0.0877   0.1525   0.1711   0.1931   0.2079   0.3319
     0.4674   0.5576   0.6110   0.7220   0.9677   1.1124   1.1366   1.2382
     1.7781   1.8353   1.8914   2.0173   2.1978   2.2398   2.2850   2.3380
     2.4008   2.4205   2.4862   2.5705   2.5895   2.6515   2.6940   2.7682
     2.7867   2.8467   2.9412   3.0239   3.0427   3.1408   3.2726   3.3243
     3.3409   3.4061   3.7237   3.7514   3.7973   3.8333   3.8857   3.8954
     4.1477   4.2090   4.2495   4.3210   4.3493   4.3845   4.6983   4.7590
     4.7774   4.8380   4.8640   4.9125   5.1300   5.2622   5.2747   5.3550
     5.4162   5.4948   5.5202   5.5848   5.6195   5.6424   5.7094   5.7308
     5.9517   6.0550   6.3710   6.4311   6.4655   6.5400   6.5661   6.6452
     6.6543   6.7656   6.8287   6.8488   6.8930   6.9368   7.1246   7.1699
     7.3598   7.3898   7.4340   7.4798   7.7263   7.8049   7.8310   7.8352
     7.9194   7.9339   8.1602   8.2628   8.3185   8.3838   8.4120   8.5059
     8.6292   8.7253   8.8575   8.9173   8.9441   8.9820   9.0209   9.0374
     9.0568   9.0627   9.2318   9.2735   9.3472   9.3914   9.4809   9.5212
     9.8350   9.8925   9.9105   9.9622   9.9791  10.0398  10.2032  10.2645
    10.3932  10.4198  10.4838  10.5041  10.6170  10.6366  10.6813  10.6926
    10.8840  10.9563  10.9846  11.0245  11.2719  11.3379  11.4101  11.4364
    11.4833  11.5025  11.6558  11.7493  11.7780  11.8003  11.8273  11.8951
    11.9704  12.0352  12.1088  12.1384  12.1639  12.2228  12.2545  12.2673
    12.3109  12.3385  12.5196  12.5869  12.5922  12.6200  12.6487  12.7166
    12.8768  12.9178  12.9229  12.9767  12.9827  13.0039  13.0157  13.0371
    13.0730  13.1149  13.1473  13.1912  13.2752  13.2926  13.3321  13.3706
    13.4620  13.5183  13.5388  13.5627  13.7436  13.7841  13.8445  13.9037
    13.9841  14.0537  14.0721  14.1024  14.1222  14.1662  14.2623  14.2976
    14.3549  14.3677  14.3736  14.4517  14.4743  14.5176  14.5234  14.5617
    14.6716  14.7352  14.8573  14.8938  14.9130  14.9371  14.9555  14.9728
    15.0575  15.0991  15.2214  15.2409  15.2735  15.2999  15.3435  15.3634
    15.4189  15.4213  15.5843  15.6362  15.6439  15.6852  15.7005  15.7627
    15.8175  15.8878  15.8933  15.9111  15.9203  15.9335  15.9820  15.9897
    16.1677  16.2304  16.2940  16.3592  16.3826  16.4446  16.4707  16.4984
    16.5355  16.5475  16.6718  16.7231  16.7734  16.8113  16.8472  16.8797
    16.9434  16.9722  17.0032  17.0464  17.0666  17.0821  17.1044  17.1369
    17.2447  17.2981  17.3251  17.3729  17.4824  17.5400  17.6887  17.7517
    17.7598  17.8040  17.8484  17.8766  17.9234  17.9879  18.1172  18.1623
    18.1871  18.2074  18.3846  18.4749  18.4862  18.5096  18.5530  18.5634
    18.5749  18.6356  18.6556  18.6982  18.7352  18.7828  18.9607  18.9778
    19.0275  19.0588  19.0662  19.0912  19.1292  19.1503  19.2193  19.2559
    19.2718  19.2827  19.3182  19.3242  19.3455  19.3933  19.4707  19.5297
    19.6047  19.6223  19.6406  19.6666  19.6873  19.6980  19.7689  19.8373
    19.8773  19.9368  19.9704  20.0143  20.0267  20.0994  20.1180  20.1187
    20.1208  20.1548  20.2045  20.2144  20.3029  20.3525  20.4410  20.4837
    20.5031  20.5306  20.6015  20.6619  20.6758  20.7156  20.7426  20.8111
    20.8136  20.8696  20.8846  20.9635  20.9914  21.0115  21.0399  21.0621
    21.1013  21.1156  21.1601  21.1683  21.2128  21.2443  21.2765  21.3430
    21.3640  21.4125  21.4380  21.4760  21.5003  21.5807  21.6156  21.6645
    21.6814  21.6880  21.6952  21.7255  21.8966  21.9411  21.9998  22.0770
    22.0946  22.1287  22.1546  22.2421  22.2612  22.2705  22.3143  22.3397
    22.3807  22.3878  22.4191  22.4533  22.5686  22.6473  22.6609  22.6835
    22.7311  22.7397  22.8369  22.8757  22.8943  22.9883  23.0312  23.1033
    23.1159  23.1749  23.2059  23.2988  23.3646  23.4168  23.4617  23.5218
    23.5356  23.5413  23.5800  23.5823  23.5886  23.6221  23.6559  23.6902
    23.7155  23.7632  23.7945  23.8475  23.8648  23.9208  23.9672  24.0291
    24.0900  24.1170  24.1485  24.1800  24.1988  24.2358  24.2425  24.2901
    24.3287  24.4033  24.4240  24.4492  24.4785  24.4923  24.5161  24.5396
    24.6180  24.6431  24.6877  24.7257  24.7731  24.8100  24.8481  24.8927
    24.9001  24.9532  24.9903  25.0423  25.0685  25.1252  25.1445  25.2056
    25.2317  25.2836  25.3027  25.3548  25.4146  25.4817  25.5030  25.5526
    25.5672  25.5889  25.6265  25.6416  25.6712  25.6876  25.7078  25.7648
    25.8311  25.8848  25.9419  25.9949  26.0042  26.0714  26.1032  26.1126
    26.1579  26.1626  26.2723  26.3161  26.3510  26.3582  26.3839  26.4466
    26.5869  26.6416  26.6489  26.7094  26.7316  26.7328  26.7798  26.8057
    26.8574  26.8843  26.9048  26.9262  26.9345  27.0053  27.0759  27.1269
    27.1426  27.1775  27.2005  27.2489  27.2566  27.3116  27.3343  27.3779

     occupation numbers 
     1.0000   1.0000   1.0000   1.0000   1.0000   1.0000   1.0000   1.0000
     1.0000   1.0000   1.0000   1.0000   1.0000   1.0000   1.0000   1.0000
     1.0000   1.0000   1.0000   1.0000   1.0000   1.0000   1.0000   1.0000
     1.0000   1.0000   1.0000   1.0000   1.0000   1.0000   1.0000   1.0000
     1.0000   1.0000   1.0000   1.0000   1.0000   1.0000   1.0000   1.0000
     1.0000   1.0000   1.0000   1.0000   1.0000   1.0000   1.0000   1.0000
     1.0000   1.0000   1.0000   1.0000   1.0000   1.0000   1.0000   1.0000
     1.0000   1.0000   1.0000   1.0000   1.0000   1.0000   1.0000   1.0000
     1.0000   1.0000   1.0000   1.0000   0.0000   0.0000   0.0000   0.0000
     0.0000   0.0000   0.0000   0.0000   0.0000   0.0000   0.0000   0.0000
     0.0000   0.0000   0.0000   0.0000   0.0000   0.0000   0.0000   0.0000
     0.0000   0.0000   0.0000   0.0000   0.0000   0.0000   0.0000   0.0000
     0.0000   0.0000   0.0000   0.0000   0.0000   0.0000   0.0000   0.0000
     0.0000   0.0000   0.0000   0.0000   0.0000   0.0000   0.0000   0.0000
     0.0000   0.0000   0.0000   0.0000   0.0000   0.0000   0.0000   0.0000
     0.0000   0.0000   0.0000   0.0000   0.0000   0.0000   0.0000   0.0000
     0.0000   0.0000   0.0000   0.0000   0.0000   0.0000   0.0000   0.0000
     0.0000   0.0000   0.0000   0.0000   0.0000   0.0000   0.0000   0.0000
     0.0000   0.0000   0.0000   0.0000   0.0000   0.0000   0.0000   0.0000
     0.0000   0.0000   0.0000   0.0000   0.0000   0.0000   0.0000   0.0000
     0.0000   0.0000   0.0000   0.0000   0.0000   0.0000   0.0000   0.0000
     0.0000   0.0000   0.0000   0.0000   0.0000   0.0000   0.0000   0.0000
     0.0000   0.0000   0.0000   0.0000   0.0000   0.0000   0.0000   0.0000
     0.0000   0.0000   0.0000   0.0000   0.0000   0.0000   0.0000   0.0000
     0.0000   0.0000   0.0000   0.0000   0.0000   0.0000   0.0000   0.0000
     0.0000   0.0000   0.0000   0.0000   0.0000   0.0000   0.0000   0.0000
     0.0000   0.0000   0.0000   0.0000   0.0000   0.0000   0.0000   0.0000
     0.0000   0.0000   0.0000   0.0000   0.0000   0.0000   0.0000   0.0000
     0.0000   0.0000   0.0000   0.0000   0.0000   0.0000   0.0000   0.0000
     0.0000   0.0000   0.0000   0.0000   0.0000   0.0000   0.0000   0.0000
     0.0000   0.0000   0.0000   0.0000   0.0000   0.0000   0.0000   0.0000
     0.0000   0.0000   0.0000   0.0000   0.0000   0.0000   0.0000   0.0000
     0.0000   0.0000   0.0000   0.0000   0.0000   0.0000   0.0000   0.0000
     0.0000   0.0000   0.0000   0.0000   0.0000   0.0000   0.0000   0.0000
     0.0000   0.0000   0.0000   0.0000   0.0000   0.0000   0.0000   0.0000
     0.0000   0.0000   0.0000   0.0000   0.0000   0.0000   0.0000   0.0000
     0.0000   0.0000   0.0000   0.0000   0.0000   0.0000   0.0000   0.0000
     0.0000   0.0000   0.0000   0.0000   0.0000   0.0000   0.0000   0.0000
     0.0000   0.0000   0.0000   0.0000   0.0000   0.0000   0.0000   0.0000
     0.0000   0.0000   0.0000   0.0000   0.0000   0.0000   0.0000   0.0000
     0.0000   0.0000   0.0000   0.0000   0.0000   0.0000   0.0000   0.0000
     0.0000   0.0000   0.0000   0.0000   0.0000   0.0000   0.0000   0.0000
     0.0000   0.0000   0.0000   0.0000   0.0000   0.0000   0.0000   0.0000
     0.0000   0.0000   0.0000   0.0000   0.0000   0.0000   0.0000   0.0000
     0.0000   0.0000   0.0000   0.0000   0.0000   0.0000   0.0000   0.0000
     0.0000   0.0000   0.0000   0.0000   0.0000   0.0000   0.0000   0.0000
     0.0000   0.0000   0.0000   0.0000   0.0000   0.0000   0.0000   0.0000
     0.0000   0.0000   0.0000   0.0000   0.0000   0.0000   0.0000   0.0000
     0.0000   0.0000   0.0000   0.0000   0.0000   0.0000   0.0000   0.0000
     0.0000   0.0000   0.0000   0.0000   0.0000   0.0000   0.0000   0.0000
     0.0000   0.0000   0.0000   0.0000   0.0000   0.0000   0.0000   0.0000
     0.0000   0.0000   0.0000   0.0000   0.0000   0.0000   0.0000   0.0000
     0.0000   0.0000   0.0000   0.0000   0.0000   0.0000   0.0000   0.0000
     0.0000   0.0000   0.0000   0.0000   0.0000   0.0000   0.0000   0.0000
     0.0000   0.0000   0.0000   0.0000   0.0000   0.0000   0.0000   0.0000
     0.0000   0.0000   0.0000   0.0000   0.0000   0.0000   0.0000   0.0000
     0.0000   0.0000   0.0000   0.0000   0.0000   0.0000   0.0000   0.0000
     0.0000   0.0000   0.0000   0.0000   0.0000   0.0000   0.0000   0.0000
     0.0000   0.0000   0.0000   0.0000   0.0000   0.0000   0.0000   0.0000
     0.0000   0.0000   0.0000   0.0000   0.0000   0.0000   0.0000   0.0000
     0.0000   0.0000   0.0000   0.0000   0.0000   0.0000   0.0000   0.0000
     0.0000   0.0000   0.0000   0.0000   0.0000   0.0000   0.0000   0.0000
     0.0000   0.0000   0.0000   0.0000   0.0000   0.0000   0.0000   0.0000
     0.0000   0.0000   0.0000   0.0000   0.0000   0.0000   0.0000   0.0000
     0.0000   0.0000   0.0000   0.0000   0.0000   0.0000   0.0000   0.0000
     0.0000   0.0000   0.0000   0.0000   0.0000   0.0000   0.0000   0.0000
     0.0000   0.0000   0.0000   0.0000   0.0000   0.0000   0.0000   0.0000
     0.0000   0.0000   0.0000   0.0000   0.0000   0.0000   0.0000   0.0000
     0.0000   0.0000   0.0000   0.0000   0.0000   0.0000   0.0000   0.0000
     0.0000   0.0000   0.0000   0.0000   0.0000   0.0000   0.0000   0.0000
     0.0000   0.0000   0.0000   0.0000   0.0000   0.0000   0.0000   0.0000
     0.0000   0.0000   0.0000   0.0000   0.0000   0.0000   0.0000   0.0000
     0.0000   0.0000   0.0000   0.0000   0.0000   0.0000   0.0000   0.0000
     0.0000   0.0000   0.0000   0.0000   0.0000   0.0000   0.0000   0.0000
     0.0000   0.0000   0.0000   0.0000   0.0000   0.0000   0.0000   0.0000

          k = 0.0000 0.3849 0.0000 ( 59506 PWs)   bands (ev):

   -73.4619 -73.4615 -71.3727 -71.3723 -47.5882 -47.5859 -47.2963 -47.2956
   -46.9692 -46.9667 -45.3659 -45.3633 -45.0705 -45.0696 -44.8936 -44.8906
   -18.2614 -18.2343 -17.8182 -17.7398 -17.7268 -17.6981 -17.6688 -17.6509
   -17.5483 -17.5206 -17.4175 -17.3655 -11.6713 -11.6033 -11.3382 -11.2335
   -10.2032 -10.0797  -9.7576  -9.6292  -9.4736  -9.4276  -9.1176  -9.0815
    -8.8895  -8.8256  -8.4468  -8.3591  -8.1075  -7.9295  -7.8462  -7.7541
    -7.6914  -7.6428  -7.5798  -7.4684  -7.4105  -7.2494  -7.2053  -7.1783
    -7.1117  -6.8818  -6.8644  -6.7451  -6.6583  -6.4670  -6.2938  -6.2066
    -6.0707  -6.0102  -5.8614  -5.7583  -5.2990  -5.1509  -5.0787  -5.0313
    -5.0139  -4.9470  -4.1533  -4.1212  -3.9384  -3.8712  -3.8397  -3.7926
    -2.5346  -2.4492  -2.3037  -2.2832  -1.4292  -1.0468  -0.6475  -0.3856
    -0.1456  -0.0395  -0.0283   0.0906   0.1619   0.1995   0.3534   0.4396
     0.6257   0.6657   0.7802   0.8025   0.8294   0.9430   1.0411   1.1890
     1.2930   1.3936   1.5776   1.6997   1.7110   1.7960   1.8264   1.9240
     2.1089   2.1476   2.2167   2.3018   2.5206   2.5334   2.5937   2.6098
     2.7087   2.7530   2.8131   2.8610   3.0477   3.0520   3.1002   3.1423
     3.1511   3.1786   3.5865   3.6255   3.6885   3.7223   3.7834   3.8146
     3.8527   3.8942   4.0742   4.1702   4.2543   4.3798   4.6207   4.6762
     5.1255   5.2106   5.4367   5.4469   5.5052   5.5622   5.5922   5.6057
     5.6565   5.6939   6.1681   6.1803   6.2229   6.2360   6.2684   6.3189
     6.3207   6.4097   6.4711   6.5716   6.6920   6.7205   6.8060   6.8469
     7.0749   7.1459   7.1706   7.2403   7.7731   7.8228   7.8392   7.8867
     7.9340   7.9397   7.9590   8.0125   8.0670   8.1755   8.2288   8.2511
     8.3345   8.3884   8.4328   8.5036   8.5847   8.6284   8.6425   8.6991
     8.8006   8.8457   8.8609   8.9295   9.0523   9.1057   9.1470   9.1961
     9.2108   9.2727   9.4057   9.4455   9.4797   9.5209   9.5345   9.5658
     9.5924   9.6528   9.6685   9.7437   9.7627   9.8146   9.8849   9.9808
    10.0317  10.1115  10.3169  10.4059  10.4850  10.5740  10.7013  10.7396
    10.7858  10.8254  10.8316  10.8483  10.8832  10.9053  10.9191  10.9594
    10.9971  11.0346  11.0636  11.0801  11.1316  11.2107  11.4196  11.4599
    11.4863  11.5278  11.6243  11.6609  11.7572  11.8276  11.8424  11.8929
    11.9097  11.9775  12.0520  12.0994  12.1907  12.2456  12.3188  12.3906
    12.3960  12.4310  12.4802  12.4974  12.5030  12.5548  12.6854  12.7389
    12.8179  12.8958  13.1069  13.1273  13.1655  13.1940  13.2443  13.3187
    13.3807  13.4101  13.4368  13.4558  13.5481  13.5953  13.6851  13.7409
    13.7503  13.8190  14.0516  14.1006  14.1379  14.2216  14.2558  14.2603
    14.3112  14.3217  14.3364  14.3659  14.5079  14.5575  14.7936  14.8012
    14.8548  14.8928  14.9042  14.9583  14.9695  15.0025  15.0332  15.0617
    15.0742  15.1265  15.1377  15.1852  15.3548  15.4099  15.4298  15.4461
    15.4720  15.4834  15.5559  15.6025  15.6045  15.6440  15.7032  15.7950
    16.0945  16.1042  16.1607  16.2091  16.2265  16.2881  16.2931  16.2981
    16.3296  16.3485  16.4626  16.5066  16.5744  16.5800  16.6939  16.7308
    16.7655  16.8202  16.8970  16.9449  16.9582  16.9865  17.0195  17.0303
    17.0901  17.1196  17.1373  17.1533  17.1655  17.2036  17.2083  17.2565
    17.2760  17.3306  17.5028  17.5364  17.5612  17.6085  17.6234  17.6293
    17.6679  17.6834  17.7505  17.8128  17.9112  17.9586  17.9814  18.0421
    18.0619  18.1056  18.1331  18.1784  18.1807  18.2617  18.3689  18.4384
    18.4507  18.4634  18.5037  18.5618  18.6960  18.7551  18.7772  18.7955
    18.8257  18.8361  18.8589  18.8985  18.9248  18.9399  18.9635  19.0019
    19.0443  19.0652  19.1020  19.1106  19.2434  19.2700  19.3153  19.3458
    19.4419  19.4506  19.4620  19.4904  19.5146  19.5252  19.5547  19.6131
    19.6301  19.6771  19.7392  19.7840  19.8985  19.9604  20.2066  20.2533
    20.2881  20.2994  20.3207  20.3473  20.4020  20.4183  20.4603  20.4767
    20.5064  20.5171  20.5552  20.6054  20.6215  20.6734  20.8783  20.8802
    20.9175  20.9530  20.9802  21.0084  21.0510  21.0685  21.1069  21.1339
    21.1579  21.2016  21.3738  21.4230  21.4361  21.4597  21.4934  21.5238
    21.5938  21.6267  21.6518  21.6987  21.7164  21.7712  21.7974  21.8208
    21.8498  21.8656  22.0112  22.0659  22.1114  22.1449  22.1715  22.2066
    22.2391  22.2503  22.2840  22.3201  22.3288  22.3787  22.5066  22.5438
    22.6665  22.7158  22.7207  22.7585  22.8084  22.8343  22.8711  22.8913
    22.9182  22.9465  22.9536  23.0042  23.0237  23.0867  23.1212  23.1577
    23.1658  23.2248  23.2706  23.3073  23.3345  23.3488  23.4160  23.4975
    23.5623  23.5865  23.6271  23.6329  23.6405  23.6440  23.6794  23.7073
    23.7633  23.8006  23.8042  23.8235  23.8509  23.8522  24.0770  24.1007
    24.1363  24.1723  24.1874  24.2613  24.2813  24.3005  24.3046  24.3708
    24.3921  24.4050  24.4481  24.4643  24.5060  24.5552  24.5688  24.6076
    24.6134  24.6251  24.6598  24.6637  24.7030  24.7712  24.7727  24.8522
    24.8574  24.8986  24.9050  24.9648  24.9805  24.9906  25.0067  25.0473
    25.1631  25.2486  25.2651  25.3184  25.4071  25.4170  25.4664  25.4881
    25.5501  25.5631  25.6010  25.6427  25.7218  25.7553  25.8365  25.8529
    25.8751  25.8839  25.9337  25.9610  26.0300  26.0714  26.1637  26.1783
    26.2157  26.2203  26.2327  26.2898  26.3263  26.3651  26.4040  26.4767
    26.4896  26.5202  26.7087  26.7770  26.8027  26.8427  26.9260  26.9443
    26.9785  27.0207  27.0291  27.0601  27.0779  27.0924  27.2163  27.2354
    27.2699  27.2902  27.3178  27.3235  27.3533  27.3804  27.3989  27.4144

     occupation numbers 
     1.0000   1.0000   1.0000   1.0000   1.0000   1.0000   1.0000   1.0000
     1.0000   1.0000   1.0000   1.0000   1.0000   1.0000   1.0000   1.0000
     1.0000   1.0000   1.0000   1.0000   1.0000   1.0000   1.0000   1.0000
     1.0000   1.0000   1.0000   1.0000   1.0000   1.0000   1.0000   1.0000
     1.0000   1.0000   1.0000   1.0000   1.0000   1.0000   1.0000   1.0000
     1.0000   1.0000   1.0000   1.0000   1.0000   1.0000   1.0000   1.0000
     1.0000   1.0000   1.0000   1.0000   1.0000   1.0000   1.0000   1.0000
     1.0000   1.0000   1.0000   1.0000   1.0000   1.0000   1.0000   1.0000
     1.0000   1.0000   1.0000   1.0000   0.0000   0.0000   0.0000   0.0000
     0.0000   0.0000   0.0000   0.0000   0.0000   0.0000   0.0000   0.0000
     0.0000   0.0000   0.0000   0.0000   0.0000   0.0000   0.0000   0.0000
     0.0000   0.0000   0.0000   0.0000   0.0000   0.0000   0.0000   0.0000
     0.0000   0.0000   0.0000   0.0000   0.0000   0.0000   0.0000   0.0000
     0.0000   0.0000   0.0000   0.0000   0.0000   0.0000   0.0000   0.0000
     0.0000   0.0000   0.0000   0.0000   0.0000   0.0000   0.0000   0.0000
     0.0000   0.0000   0.0000   0.0000   0.0000   0.0000   0.0000   0.0000
     0.0000   0.0000   0.0000   0.0000   0.0000   0.0000   0.0000   0.0000
     0.0000   0.0000   0.0000   0.0000   0.0000   0.0000   0.0000   0.0000
     0.0000   0.0000   0.0000   0.0000   0.0000   0.0000   0.0000   0.0000
     0.0000   0.0000   0.0000   0.0000   0.0000   0.0000   0.0000   0.0000
     0.0000   0.0000   0.0000   0.0000   0.0000   0.0000   0.0000   0.0000
     0.0000   0.0000   0.0000   0.0000   0.0000   0.0000   0.0000   0.0000
     0.0000   0.0000   0.0000   0.0000   0.0000   0.0000   0.0000   0.0000
     0.0000   0.0000   0.0000   0.0000   0.0000   0.0000   0.0000   0.0000
     0.0000   0.0000   0.0000   0.0000   0.0000   0.0000   0.0000   0.0000
     0.0000   0.0000   0.0000   0.0000   0.0000   0.0000   0.0000   0.0000
     0.0000   0.0000   0.0000   0.0000   0.0000   0.0000   0.0000   0.0000
     0.0000   0.0000   0.0000   0.0000   0.0000   0.0000   0.0000   0.0000
     0.0000   0.0000   0.0000   0.0000   0.0000   0.0000   0.0000   0.0000
     0.0000   0.0000   0.0000   0.0000   0.0000   0.0000   0.0000   0.0000
     0.0000   0.0000   0.0000   0.0000   0.0000   0.0000   0.0000   0.0000
     0.0000   0.0000   0.0000   0.0000   0.0000   0.0000   0.0000   0.0000
     0.0000   0.0000   0.0000   0.0000   0.0000   0.0000   0.0000   0.0000
     0.0000   0.0000   0.0000   0.0000   0.0000   0.0000   0.0000   0.0000
     0.0000   0.0000   0.0000   0.0000   0.0000   0.0000   0.0000   0.0000
     0.0000   0.0000   0.0000   0.0000   0.0000   0.0000   0.0000   0.0000
     0.0000   0.0000   0.0000   0.0000   0.0000   0.0000   0.0000   0.0000
     0.0000   0.0000   0.0000   0.0000   0.0000   0.0000   0.0000   0.0000
     0.0000   0.0000   0.0000   0.0000   0.0000   0.0000   0.0000   0.0000
     0.0000   0.0000   0.0000   0.0000   0.0000   0.0000   0.0000   0.0000
     0.0000   0.0000   0.0000   0.0000   0.0000   0.0000   0.0000   0.0000
     0.0000   0.0000   0.0000   0.0000   0.0000   0.0000   0.0000   0.0000
     0.0000   0.0000   0.0000   0.0000   0.0000   0.0000   0.0000   0.0000
     0.0000   0.0000   0.0000   0.0000   0.0000   0.0000   0.0000   0.0000
     0.0000   0.0000   0.0000   0.0000   0.0000   0.0000   0.0000   0.0000
     0.0000   0.0000   0.0000   0.0000   0.0000   0.0000   0.0000   0.0000
     0.0000   0.0000   0.0000   0.0000   0.0000   0.0000   0.0000   0.0000
     0.0000   0.0000   0.0000   0.0000   0.0000   0.0000   0.0000   0.0000
     0.0000   0.0000   0.0000   0.0000   0.0000   0.0000   0.0000   0.0000
     0.0000   0.0000   0.0000   0.0000   0.0000   0.0000   0.0000   0.0000
     0.0000   0.0000   0.0000   0.0000   0.0000   0.0000   0.0000   0.0000
     0.0000   0.0000   0.0000   0.0000   0.0000   0.0000   0.0000   0.0000
     0.0000   0.0000   0.0000   0.0000   0.0000   0.0000   0.0000   0.0000
     0.0000   0.0000   0.0000   0.0000   0.0000   0.0000   0.0000   0.0000
     0.0000   0.0000   0.0000   0.0000   0.0000   0.0000   0.0000   0.0000
     0.0000   0.0000   0.0000   0.0000   0.0000   0.0000   0.0000   0.0000
     0.0000   0.0000   0.0000   0.0000   0.0000   0.0000   0.0000   0.0000
     0.0000   0.0000   0.0000   0.0000   0.0000   0.0000   0.0000   0.0000
     0.0000   0.0000   0.0000   0.0000   0.0000   0.0000   0.0000   0.0000
     0.0000   0.0000   0.0000   0.0000   0.0000   0.0000   0.0000   0.0000
     0.0000   0.0000   0.0000   0.0000   0.0000   0.0000   0.0000   0.0000
     0.0000   0.0000   0.0000   0.0000   0.0000   0.0000   0.0000   0.0000
     0.0000   0.0000   0.0000   0.0000   0.0000   0.0000   0.0000   0.0000
     0.0000   0.0000   0.0000   0.0000   0.0000   0.0000   0.0000   0.0000
     0.0000   0.0000   0.0000   0.0000   0.0000   0.0000   0.0000   0.0000
     0.0000   0.0000   0.0000   0.0000   0.0000   0.0000   0.0000   0.0000
     0.0000   0.0000   0.0000   0.0000   0.0000   0.0000   0.0000   0.0000
     0.0000   0.0000   0.0000   0.0000   0.0000   0.0000   0.0000   0.0000
     0.0000   0.0000   0.0000   0.0000   0.0000   0.0000   0.0000   0.0000
     0.0000   0.0000   0.0000   0.0000   0.0000   0.0000   0.0000   0.0000
     0.0000   0.0000   0.0000   0.0000   0.0000   0.0000   0.0000   0.0000
     0.0000   0.0000   0.0000   0.0000   0.0000   0.0000   0.0000   0.0000
     0.0000   0.0000   0.0000   0.0000   0.0000   0.0000   0.0000   0.0000
     0.0000   0.0000   0.0000   0.0000   0.0000   0.0000   0.0000   0.0000
     0.0000   0.0000   0.0000   0.0000   0.0000   0.0000   0.0000   0.0000

          k = 0.0000-0.5774 0.0000 ( 59450 PWs)   bands (ev):

   -73.4619 -73.4616 -71.3727 -71.3723 -47.5877 -47.5864 -47.2962 -47.2957
   -46.9687 -46.9672 -45.3654 -45.3638 -45.0703 -45.0698 -44.8930 -44.8912
   -18.1049 -18.0628 -17.9002 -17.8859 -17.7640 -17.7002 -17.6908 -17.6117
   -17.5565 -17.5520 -17.5096 -17.3777 -11.6874 -11.5850 -11.4042 -11.2255
   -10.2153 -10.0956  -9.6695  -9.5562  -9.5152  -9.4776  -8.9445  -8.8638
    -8.7176  -8.4901  -8.4166  -8.3754  -8.2328  -8.1640  -8.0991  -8.0730
    -7.6510  -7.5925  -7.5583  -7.4782  -7.3505  -7.1861  -7.1554  -7.0775
    -6.9494  -6.8267  -6.7500  -6.6992  -6.6889  -6.5846  -6.3661  -6.1970
    -6.0890  -6.0038  -5.9431  -5.9216  -5.3622  -5.2129  -5.0224  -5.0023
    -4.9826  -4.9204  -4.1978  -4.1854  -3.9169  -3.8746  -3.8405  -3.7636
    -2.5622  -2.3357  -2.3287  -2.2937  -1.6174  -1.2470  -0.4673  -0.4073
    -0.3546   0.0101   0.0510   0.1639   0.2206   0.3174   0.3661   0.4214
     0.4247   0.4840   0.5018   0.5588   0.6110   0.6462   1.1543   1.2398
     1.3034   1.4209   1.6447   1.6690   1.7440   1.7627   1.7961   1.9066
     2.1028   2.1138   2.2247   2.2383   2.2603   2.4347   2.4599   2.5049
     2.6312   2.7024   2.7444   2.8205   2.8292   2.8489   2.9492   2.9842
     3.0048   3.0738   3.4372   3.4983   3.5149   3.5688   3.8160   3.8454
     3.8934   3.9959   4.3803   4.5190   4.9118   4.9892   5.0170   5.0255
     5.0506   5.0537   5.7032   5.7406   5.7845   5.8353   5.9408   5.9415
     5.9867   5.9873   6.0354   6.0425   6.2501   6.3533   6.3555   6.4091
     6.5199   6.6022   6.6095   6.6977   6.7808   6.8121   7.3555   7.3606
     7.3754   7.4171   7.4254   7.4323   7.4836   7.5019   7.7273   7.7984
     7.8066   7.8129   7.8596   7.8649   7.9116   7.9643   8.1014   8.1765
     8.1800   8.2196   8.2938   8.4192   8.5667   8.6108   8.6392   8.6850
     8.8553   8.9330   8.9348   9.0304   9.1334   9.2025   9.2045   9.2582
     9.2986   9.3535   9.4257   9.4685   9.5747   9.6406   9.6764   9.6829
     9.7315   9.8461   9.8549   9.8979  10.0234  10.0995  10.1151  10.1417
    10.1655  10.2236  10.3291  10.3623  10.3895  10.4018  10.4053  10.4661
    10.5067  10.5202  10.5220  10.5926  10.7460  10.7792  10.8168  10.8917
    11.1225  11.1407  11.1798  11.1990  11.3058  11.3286  11.3433  11.4020
    11.4103  11.4134  11.4515  11.4616  11.5378  11.6199  11.7143  11.7474
    11.7762  11.7964  11.8321  11.8752  12.0288  12.0601  12.0930  12.1222
    12.2030  12.2430  12.3355  12.3709  12.8300  12.8429  12.8546  12.8900
    12.9016  12.9104  12.9268  12.9273  12.9952  13.0305  13.0431  13.0695
    13.2372  13.3563  13.3782  13.4886  13.7384  13.7852  13.8237  13.8459
    13.8579  13.9167  14.1128  14.1241  14.1579  14.1580  14.1919  14.1991
    14.2310  14.2689  14.2893  14.3514  14.4964  14.5014  14.5439  14.5589
    14.5646  14.6075  14.6692  14.7155  14.9467  14.9854  15.0119  15.0415
    15.0692  15.1027  15.2110  15.2217  15.2462  15.2618  15.3509  15.4613
    15.4746  15.5110  15.5475  15.5513  15.6900  15.7456  15.8695  15.9110
    15.9414  15.9485  16.0169  16.0206  16.0739  16.1197  16.1483  16.2137
    16.2154  16.2421  16.2709  16.2754  16.3160  16.3264  16.3951  16.4367
    16.6831  16.7219  16.7731  16.8137  16.9431  16.9703  17.0165  17.0594
    17.0906  17.0920  17.1188  17.1335  17.1920  17.2230  17.2487  17.3109
    17.3369  17.4219  17.5288  17.5497  17.5609  17.6393  17.6528  17.6809
    17.7013  17.7979  17.8125  17.8428  17.8709  17.8738  17.9061  17.9185
    18.0821  18.1567  18.1685  18.2679  18.3540  18.3844  18.4094  18.4475
    18.4712  18.5018  18.7083  18.7503  18.7657  18.7775  18.8812  18.9343
    18.9693  18.9911  18.9926  19.0289  19.0508  19.0572  19.0931  19.1059
    19.1496  19.1897  19.2578  19.3225  19.4004  19.4095  19.4314  19.4421
    19.4442  19.4973  19.5239  19.5717  19.6269  19.6742  19.6828  19.6897
    19.7372  19.7659  19.8387  19.9084  19.9802  19.9851  19.9907  20.0360
    20.0369  20.0738  20.1138  20.1697  20.2857  20.3116  20.3359  20.3429
    20.3463  20.3567  20.3968  20.4160  20.6108  20.6543  20.6647  20.7188
    20.8395  20.8874  20.9016  20.9264  20.9542  20.9588  21.0761  21.1470
    21.2599  21.3162  21.3739  21.4546  21.4799  21.5324  21.5564  21.5861
    21.6860  21.7689  21.8715  21.9451  21.9746  22.0000  22.0636  22.0852
    22.1132  22.1402  22.1447  22.1629  22.1828  22.2197  22.2569  22.2930
    22.3103  22.3704  22.3885  22.3900  22.4149  22.4266  22.4275  22.4386
    22.4774  22.4834  22.4951  22.5419  22.6005  22.6262  22.6393  22.6712
    22.9891  23.0253  23.0616  23.0681  23.0832  23.0969  23.1177  23.1386
    23.1425  23.1473  23.1622  23.1771  23.2634  23.2730  23.2849  23.2930
    23.3064  23.3154  23.3193  23.3561  23.3836  23.4247  23.4594  23.5021
    23.5212  23.5705  23.5990  23.6425  23.7301  23.7660  23.8197  23.8790
    23.8897  23.8908  23.9326  23.9507  24.1812  24.1966  24.2432  24.2538
    24.3128  24.3516  24.3648  24.4295  24.5802  24.5962  24.7502  24.7509
    24.7979  24.8208  24.9239  24.9806  25.0271  25.1187  25.1419  25.1580
    25.1867  25.2329  25.2605  25.2879  25.3763  25.4715  25.4997  25.5216
    25.5369  25.5547  25.5919  25.6442  25.6859  25.7094  25.7437  25.7732
    25.8315  25.8783  25.8977  25.9239  25.9668  26.0062  26.1132  26.1614
    26.1656  26.1914  26.2283  26.2511  26.2887  26.2922  26.3706  26.3814
    26.4040  26.4288  26.4749  26.4967  26.5451  26.5657  26.6420  26.6459
    26.6643  26.7009  26.7356  26.7806  26.8222  26.8226  26.8775  26.8901
    26.9206  26.9334  26.9882  27.0699  27.1657  27.1932  27.2199  27.2310
    27.2645  27.2727  27.3172  27.3477  27.5736  27.6059  27.6118  27.6304

     occupation numbers 
     1.0000   1.0000   1.0000   1.0000   1.0000   1.0000   1.0000   1.0000
     1.0000   1.0000   1.0000   1.0000   1.0000   1.0000   1.0000   1.0000
     1.0000   1.0000   1.0000   1.0000   1.0000   1.0000   1.0000   1.0000
     1.0000   1.0000   1.0000   1.0000   1.0000   1.0000   1.0000   1.0000
     1.0000   1.0000   1.0000   1.0000   1.0000   1.0000   1.0000   1.0000
     1.0000   1.0000   1.0000   1.0000   1.0000   1.0000   1.0000   1.0000
     1.0000   1.0000   1.0000   1.0000   1.0000   1.0000   1.0000   1.0000
     1.0000   1.0000   1.0000   1.0000   1.0000   1.0000   1.0000   1.0000
     1.0000   1.0000   1.0000   1.0000   0.0000   0.0000   0.0000   0.0000
     0.0000   0.0000   0.0000   0.0000   0.0000   0.0000   0.0000   0.0000
     0.0000   0.0000   0.0000   0.0000   0.0000   0.0000   0.0000   0.0000
     0.0000   0.0000   0.0000   0.0000   0.0000   0.0000   0.0000   0.0000
     0.0000   0.0000   0.0000   0.0000   0.0000   0.0000   0.0000   0.0000
     0.0000   0.0000   0.0000   0.0000   0.0000   0.0000   0.0000   0.0000
     0.0000   0.0000   0.0000   0.0000   0.0000   0.0000   0.0000   0.0000
     0.0000   0.0000   0.0000   0.0000   0.0000   0.0000   0.0000   0.0000
     0.0000   0.0000   0.0000   0.0000   0.0000   0.0000   0.0000   0.0000
     0.0000   0.0000   0.0000   0.0000   0.0000   0.0000   0.0000   0.0000
     0.0000   0.0000   0.0000   0.0000   0.0000   0.0000   0.0000   0.0000
     0.0000   0.0000   0.0000   0.0000   0.0000   0.0000   0.0000   0.0000
     0.0000   0.0000   0.0000   0.0000   0.0000   0.0000   0.0000   0.0000
     0.0000   0.0000   0.0000   0.0000   0.0000   0.0000   0.0000   0.0000
     0.0000   0.0000   0.0000   0.0000   0.0000   0.0000   0.0000   0.0000
     0.0000   0.0000   0.0000   0.0000   0.0000   0.0000   0.0000   0.0000
     0.0000   0.0000   0.0000   0.0000   0.0000   0.0000   0.0000   0.0000
     0.0000   0.0000   0.0000   0.0000   0.0000   0.0000   0.0000   0.0000
     0.0000   0.0000   0.0000   0.0000   0.0000   0.0000   0.0000   0.0000
     0.0000   0.0000   0.0000   0.0000   0.0000   0.0000   0.0000   0.0000
     0.0000   0.0000   0.0000   0.0000   0.0000   0.0000   0.0000   0.0000
     0.0000   0.0000   0.0000   0.0000   0.0000   0.0000   0.0000   0.0000
     0.0000   0.0000   0.0000   0.0000   0.0000   0.0000   0.0000   0.0000
     0.0000   0.0000   0.0000   0.0000   0.0000   0.0000   0.0000   0.0000
     0.0000   0.0000   0.0000   0.0000   0.0000   0.0000   0.0000   0.0000
     0.0000   0.0000   0.0000   0.0000   0.0000   0.0000   0.0000   0.0000
     0.0000   0.0000   0.0000   0.0000   0.0000   0.0000   0.0000   0.0000
     0.0000   0.0000   0.0000   0.0000   0.0000   0.0000   0.0000   0.0000
     0.0000   0.0000   0.0000   0.0000   0.0000   0.0000   0.0000   0.0000
     0.0000   0.0000   0.0000   0.0000   0.0000   0.0000   0.0000   0.0000
     0.0000   0.0000   0.0000   0.0000   0.0000   0.0000   0.0000   0.0000
     0.0000   0.0000   0.0000   0.0000   0.0000   0.0000   0.0000   0.0000
     0.0000   0.0000   0.0000   0.0000   0.0000   0.0000   0.0000   0.0000
     0.0000   0.0000   0.0000   0.0000   0.0000   0.0000   0.0000   0.0000
     0.0000   0.0000   0.0000   0.0000   0.0000   0.0000   0.0000   0.0000
     0.0000   0.0000   0.0000   0.0000   0.0000   0.0000   0.0000   0.0000
     0.0000   0.0000   0.0000   0.0000   0.0000   0.0000   0.0000   0.0000
     0.0000   0.0000   0.0000   0.0000   0.0000   0.0000   0.0000   0.0000
     0.0000   0.0000   0.0000   0.0000   0.0000   0.0000   0.0000   0.0000
     0.0000   0.0000   0.0000   0.0000   0.0000   0.0000   0.0000   0.0000
     0.0000   0.0000   0.0000   0.0000   0.0000   0.0000   0.0000   0.0000
     0.0000   0.0000   0.0000   0.0000   0.0000   0.0000   0.0000   0.0000
     0.0000   0.0000   0.0000   0.0000   0.0000   0.0000   0.0000   0.0000
     0.0000   0.0000   0.0000   0.0000   0.0000   0.0000   0.0000   0.0000
     0.0000   0.0000   0.0000   0.0000   0.0000   0.0000   0.0000   0.0000
     0.0000   0.0000   0.0000   0.0000   0.0000   0.0000   0.0000   0.0000
     0.0000   0.0000   0.0000   0.0000   0.0000   0.0000   0.0000   0.0000
     0.0000   0.0000   0.0000   0.0000   0.0000   0.0000   0.0000   0.0000
     0.0000   0.0000   0.0000   0.0000   0.0000   0.0000   0.0000   0.0000
     0.0000   0.0000   0.0000   0.0000   0.0000   0.0000   0.0000   0.0000
     0.0000   0.0000   0.0000   0.0000   0.0000   0.0000   0.0000   0.0000
     0.0000   0.0000   0.0000   0.0000   0.0000   0.0000   0.0000   0.0000
     0.0000   0.0000   0.0000   0.0000   0.0000   0.0000   0.0000   0.0000
     0.0000   0.0000   0.0000   0.0000   0.0000   0.0000   0.0000   0.0000
     0.0000   0.0000   0.0000   0.0000   0.0000   0.0000   0.0000   0.0000
     0.0000   0.0000   0.0000   0.0000   0.0000   0.0000   0.0000   0.0000
     0.0000   0.0000   0.0000   0.0000   0.0000   0.0000   0.0000   0.0000
     0.0000   0.0000   0.0000   0.0000   0.0000   0.0000   0.0000   0.0000
     0.0000   0.0000   0.0000   0.0000   0.0000   0.0000   0.0000   0.0000
     0.0000   0.0000   0.0000   0.0000   0.0000   0.0000   0.0000   0.0000
     0.0000   0.0000   0.0000   0.0000   0.0000   0.0000   0.0000   0.0000
     0.0000   0.0000   0.0000   0.0000   0.0000   0.0000   0.0000   0.0000
     0.0000   0.0000   0.0000   0.0000   0.0000   0.0000   0.0000   0.0000
     0.0000   0.0000   0.0000   0.0000   0.0000   0.0000   0.0000   0.0000
     0.0000   0.0000   0.0000   0.0000   0.0000   0.0000   0.0000   0.0000
     0.0000   0.0000   0.0000   0.0000   0.0000   0.0000   0.0000   0.0000
     0.0000   0.0000   0.0000   0.0000   0.0000   0.0000   0.0000   0.0000

          k = 0.0000-0.3849 0.0000 ( 59506 PWs)   bands (ev):

   -73.4619 -73.4615 -71.3727 -71.3723 -47.5882 -47.5859 -47.2963 -47.2956
   -46.9692 -46.9667 -45.3659 -45.3633 -45.0705 -45.0696 -44.8936 -44.8906
   -18.2614 -18.2343 -17.8182 -17.7398 -17.7268 -17.6981 -17.6689 -17.6509
   -17.5482 -17.5206 -17.4176 -17.3655 -11.6713 -11.6033 -11.3382 -11.2335
   -10.2032 -10.0797  -9.7575  -9.6293  -9.4735  -9.4278  -9.1171  -9.0817
    -8.8897  -8.8255  -8.4469  -8.3592  -8.1074  -7.9297  -7.8454  -7.7533
    -7.6922  -7.6434  -7.5800  -7.4681  -7.4106  -7.2498  -7.2052  -7.1781
    -7.1118  -6.8815  -6.8644  -6.7451  -6.6586  -6.4668  -6.2934  -6.2068
    -6.0706  -6.0103  -5.8616  -5.7583  -5.2991  -5.1508  -5.0787  -5.0312
    -5.0140  -4.9469  -4.1533  -4.1212  -3.9383  -3.8712  -3.8396  -3.7927
    -2.5346  -2.4492  -2.3037  -2.2832  -1.4292  -1.0468  -0.6475  -0.3856
    -0.1456  -0.0396  -0.0283   0.0908   0.1622   0.1992   0.3534   0.4396
     0.6256   0.6658   0.7802   0.8025   0.8293   0.9430   1.0411   1.1890
     1.2931   1.3934   1.5776   1.6998   1.7111   1.7959   1.8267   1.9239
     2.1083   2.1481   2.2170   2.3017   2.5201   2.5338   2.5942   2.6093
     2.7086   2.7531   2.8131   2.8609   3.0476   3.0519   3.1005   3.1420
     3.1509   3.1789   3.5866   3.6254   3.6885   3.7224   3.7832   3.8147
     3.8528   3.8941   4.0742   4.1702   4.2543   4.3798   4.6207   4.6762
     5.1254   5.2107   5.4365   5.4471   5.5052   5.5622   5.5922   5.6057
     5.6565   5.6939   6.1692   6.1797   6.2217   6.2366   6.2680   6.3191
     6.3210   6.4096   6.4707   6.5720   6.6922   6.7203   6.8058   6.8470
     7.0748   7.1460   7.1709   7.2401   7.7731   7.8227   7.8392   7.8868
     7.9341   7.9396   7.9590   8.0125   8.0669   8.1755   8.2288   8.2510
     8.3348   8.3881   8.4326   8.5038   8.5847   8.6284   8.6425   8.6992
     8.8006   8.8457   8.8608   8.9296   9.0523   9.1057   9.1470   9.1961
     9.2108   9.2727   9.4057   9.4456   9.4797   9.5208   9.5345   9.5660
     9.5925   9.6526   9.6686   9.7437   9.7626   9.8147   9.8850   9.9807
    10.0316  10.1115  10.3169  10.4059  10.4850  10.5739  10.7012  10.7398
    10.7857  10.8254  10.8318  10.8484  10.8830  10.9053  10.9190  10.9594
    10.9971  11.0347  11.0639  11.0797  11.1315  11.2107  11.4195  11.4599
    11.4863  11.5278  11.6243  11.6609  11.7572  11.8276  11.8424  11.8930
    11.9096  11.9775  12.0520  12.0994  12.1907  12.2456  12.3188  12.3906
    12.3961  12.4310  12.4802  12.4974  12.5030  12.5547  12.6853  12.7389
    12.8179  12.8957  13.1068  13.1274  13.1655  13.1940  13.2443  13.3187
    13.3806  13.4102  13.4368  13.4557  13.5481  13.5953  13.6851  13.7410
    13.7503  13.8190  14.0516  14.1006  14.1379  14.2216  14.2556  14.2606
    14.3113  14.3217  14.3365  14.3659  14.5079  14.5575  14.7935  14.8012
    14.8549  14.8928  14.9042  14.9583  14.9695  15.0025  15.0332  15.0618
    15.0742  15.1265  15.1377  15.1852  15.3548  15.4100  15.4298  15.4461
    15.4718  15.4836  15.5559  15.6025  15.6045  15.6440  15.7032  15.7950
    16.0944  16.1043  16.1607  16.2091  16.2265  16.2881  16.2930  16.2980
    16.3297  16.3485  16.4626  16.5066  16.5745  16.5799  16.6938  16.7308
    16.7656  16.8202  16.8970  16.9448  16.9582  16.9865  17.0196  17.0303
    17.0902  17.1196  17.1372  17.1533  17.1655  17.2036  17.2082  17.2566
    17.2760  17.3306  17.5028  17.5365  17.5613  17.6085  17.6234  17.6293
    17.6679  17.6834  17.7505  17.8128  17.9112  17.9586  17.9815  18.0420
    18.0621  18.1055  18.1331  18.1784  18.1806  18.2618  18.3689  18.4384
    18.4507  18.4635  18.5037  18.5619  18.6960  18.7552  18.7772  18.7952
    18.8258  18.8361  18.8591  18.8985  18.9247  18.9400  18.9635  19.0017
    19.0443  19.0652  19.1021  19.1104  19.2433  19.2702  19.3154  19.3457
    19.4419  19.4505  19.4621  19.4904  19.5147  19.5250  19.5547  19.6131
    19.6301  19.6770  19.7392  19.7840  19.8985  19.9604  20.2067  20.2534
    20.2879  20.2994  20.3207  20.3473  20.4019  20.4184  20.4602  20.4768
    20.5063  20.5172  20.5552  20.6054  20.6215  20.6734  20.8782  20.8803
    20.9175  20.9530  20.9804  21.0082  21.0508  21.0688  21.1070  21.1339
    21.1579  21.2015  21.3738  21.4230  21.4360  21.4596  21.4933  21.5241
    21.5937  21.6268  21.6519  21.6986  21.7164  21.7712  21.7974  21.8208
    21.8497  21.8656  22.0112  22.0659  22.1114  22.1449  22.1714  22.2067
    22.2389  22.2505  22.2840  22.3201  22.3287  22.3787  22.5066  22.5438
    22.6665  22.7158  22.7206  22.7586  22.8084  22.8341  22.8710  22.8913
    22.9183  22.9465  22.9538  23.0041  23.0239  23.0864  23.1209  23.1581
    23.1660  23.2247  23.2706  23.3073  23.3345  23.3488  23.4159  23.4976
    23.5623  23.5865  23.6270  23.6329  23.6405  23.6441  23.6795  23.7073
    23.7633  23.8007  23.8042  23.8234  23.8509  23.8522  24.0771  24.1007
    24.1363  24.1722  24.1874  24.2614  24.2813  24.3005  24.3046  24.3708
    24.3919  24.4053  24.4481  24.4641  24.5058  24.5552  24.5689  24.6078
    24.6132  24.6251  24.6597  24.6638  24.7030  24.7712  24.7727  24.8521
    24.8573  24.8987  24.9050  24.9647  24.9804  24.9906  25.0069  25.0473
    25.1631  25.2486  25.2650  25.3184  25.4071  25.4169  25.4665  25.4881
    25.5501  25.5631  25.6010  25.6427  25.7227  25.7545  25.8360  25.8528
    25.8754  25.8839  25.9339  25.9609  26.0300  26.0714  26.1636  26.1785
    26.2157  26.2205  26.2325  26.2899  26.3263  26.3651  26.4040  26.4768
    26.4896  26.5202  26.7086  26.7770  26.8027  26.8428  26.9260  26.9443
    26.9786  27.0206  27.0291  27.0601  27.0779  27.0924  27.2164  27.2354
    27.2699  27.2901  27.3177  27.3235  27.3533  27.3804  27.3989  27.4144

     occupation numbers 
     1.0000   1.0000   1.0000   1.0000   1.0000   1.0000   1.0000   1.0000
     1.0000   1.0000   1.0000   1.0000   1.0000   1.0000   1.0000   1.0000
     1.0000   1.0000   1.0000   1.0000   1.0000   1.0000   1.0000   1.0000
     1.0000   1.0000   1.0000   1.0000   1.0000   1.0000   1.0000   1.0000
     1.0000   1.0000   1.0000   1.0000   1.0000   1.0000   1.0000   1.0000
     1.0000   1.0000   1.0000   1.0000   1.0000   1.0000   1.0000   1.0000
     1.0000   1.0000   1.0000   1.0000   1.0000   1.0000   1.0000   1.0000
     1.0000   1.0000   1.0000   1.0000   1.0000   1.0000   1.0000   1.0000
     1.0000   1.0000   1.0000   1.0000   0.0000   0.0000   0.0000   0.0000
     0.0000   0.0000   0.0000   0.0000   0.0000   0.0000   0.0000   0.0000
     0.0000   0.0000   0.0000   0.0000   0.0000   0.0000   0.0000   0.0000
     0.0000   0.0000   0.0000   0.0000   0.0000   0.0000   0.0000   0.0000
     0.0000   0.0000   0.0000   0.0000   0.0000   0.0000   0.0000   0.0000
     0.0000   0.0000   0.0000   0.0000   0.0000   0.0000   0.0000   0.0000
     0.0000   0.0000   0.0000   0.0000   0.0000   0.0000   0.0000   0.0000
     0.0000   0.0000   0.0000   0.0000   0.0000   0.0000   0.0000   0.0000
     0.0000   0.0000   0.0000   0.0000   0.0000   0.0000   0.0000   0.0000
     0.0000   0.0000   0.0000   0.0000   0.0000   0.0000   0.0000   0.0000
     0.0000   0.0000   0.0000   0.0000   0.0000   0.0000   0.0000   0.0000
     0.0000   0.0000   0.0000   0.0000   0.0000   0.0000   0.0000   0.0000
     0.0000   0.0000   0.0000   0.0000   0.0000   0.0000   0.0000   0.0000
     0.0000   0.0000   0.0000   0.0000   0.0000   0.0000   0.0000   0.0000
     0.0000   0.0000   0.0000   0.0000   0.0000   0.0000   0.0000   0.0000
     0.0000   0.0000   0.0000   0.0000   0.0000   0.0000   0.0000   0.0000
     0.0000   0.0000   0.0000   0.0000   0.0000   0.0000   0.0000   0.0000
     0.0000   0.0000   0.0000   0.0000   0.0000   0.0000   0.0000   0.0000
     0.0000   0.0000   0.0000   0.0000   0.0000   0.0000   0.0000   0.0000
     0.0000   0.0000   0.0000   0.0000   0.0000   0.0000   0.0000   0.0000
     0.0000   0.0000   0.0000   0.0000   0.0000   0.0000   0.0000   0.0000
     0.0000   0.0000   0.0000   0.0000   0.0000   0.0000   0.0000   0.0000
     0.0000   0.0000   0.0000   0.0000   0.0000   0.0000   0.0000   0.0000
     0.0000   0.0000   0.0000   0.0000   0.0000   0.0000   0.0000   0.0000
     0.0000   0.0000   0.0000   0.0000   0.0000   0.0000   0.0000   0.0000
     0.0000   0.0000   0.0000   0.0000   0.0000   0.0000   0.0000   0.0000
     0.0000   0.0000   0.0000   0.0000   0.0000   0.0000   0.0000   0.0000
     0.0000   0.0000   0.0000   0.0000   0.0000   0.0000   0.0000   0.0000
     0.0000   0.0000   0.0000   0.0000   0.0000   0.0000   0.0000   0.0000
     0.0000   0.0000   0.0000   0.0000   0.0000   0.0000   0.0000   0.0000
     0.0000   0.0000   0.0000   0.0000   0.0000   0.0000   0.0000   0.0000
     0.0000   0.0000   0.0000   0.0000   0.0000   0.0000   0.0000   0.0000
     0.0000   0.0000   0.0000   0.0000   0.0000   0.0000   0.0000   0.0000
     0.0000   0.0000   0.0000   0.0000   0.0000   0.0000   0.0000   0.0000
     0.0000   0.0000   0.0000   0.0000   0.0000   0.0000   0.0000   0.0000
     0.0000   0.0000   0.0000   0.0000   0.0000   0.0000   0.0000   0.0000
     0.0000   0.0000   0.0000   0.0000   0.0000   0.0000   0.0000   0.0000
     0.0000   0.0000   0.0000   0.0000   0.0000   0.0000   0.0000   0.0000
     0.0000   0.0000   0.0000   0.0000   0.0000   0.0000   0.0000   0.0000
     0.0000   0.0000   0.0000   0.0000   0.0000   0.0000   0.0000   0.0000
     0.0000   0.0000   0.0000   0.0000   0.0000   0.0000   0.0000   0.0000
     0.0000   0.0000   0.0000   0.0000   0.0000   0.0000   0.0000   0.0000
     0.0000   0.0000   0.0000   0.0000   0.0000   0.0000   0.0000   0.0000
     0.0000   0.0000   0.0000   0.0000   0.0000   0.0000   0.0000   0.0000
     0.0000   0.0000   0.0000   0.0000   0.0000   0.0000   0.0000   0.0000
     0.0000   0.0000   0.0000   0.0000   0.0000   0.0000   0.0000   0.0000
     0.0000   0.0000   0.0000   0.0000   0.0000   0.0000   0.0000   0.0000
     0.0000   0.0000   0.0000   0.0000   0.0000   0.0000   0.0000   0.0000
     0.0000   0.0000   0.0000   0.0000   0.0000   0.0000   0.0000   0.0000
     0.0000   0.0000   0.0000   0.0000   0.0000   0.0000   0.0000   0.0000
     0.0000   0.0000   0.0000   0.0000   0.0000   0.0000   0.0000   0.0000
     0.0000   0.0000   0.0000   0.0000   0.0000   0.0000   0.0000   0.0000
     0.0000   0.0000   0.0000   0.0000   0.0000   0.0000   0.0000   0.0000
     0.0000   0.0000   0.0000   0.0000   0.0000   0.0000   0.0000   0.0000
     0.0000   0.0000   0.0000   0.0000   0.0000   0.0000   0.0000   0.0000
     0.0000   0.0000   0.0000   0.0000   0.0000   0.0000   0.0000   0.0000
     0.0000   0.0000   0.0000   0.0000   0.0000   0.0000   0.0000   0.0000
     0.0000   0.0000   0.0000   0.0000   0.0000   0.0000   0.0000   0.0000
     0.0000   0.0000   0.0000   0.0000   0.0000   0.0000   0.0000   0.0000
     0.0000   0.0000   0.0000   0.0000   0.0000   0.0000   0.0000   0.0000
     0.0000   0.0000   0.0000   0.0000   0.0000   0.0000   0.0000   0.0000
     0.0000   0.0000   0.0000   0.0000   0.0000   0.0000   0.0000   0.0000
     0.0000   0.0000   0.0000   0.0000   0.0000   0.0000   0.0000   0.0000
     0.0000   0.0000   0.0000   0.0000   0.0000   0.0000   0.0000   0.0000
     0.0000   0.0000   0.0000   0.0000   0.0000   0.0000   0.0000   0.0000
     0.0000   0.0000   0.0000   0.0000   0.0000   0.0000   0.0000   0.0000
     0.0000   0.0000   0.0000   0.0000   0.0000   0.0000   0.0000   0.0000

          k = 0.0000-0.1925 0.0000 ( 59490 PWs)   bands (ev):

   -73.4619 -73.4615 -71.3728 -71.3723 -47.5888 -47.5853 -47.2965 -47.2955
   -46.9699 -46.9660 -45.3666 -45.3625 -45.0707 -45.0694 -44.8944 -44.8898
   -18.4221 -18.3980 -17.8729 -17.8423 -17.6257 -17.6113 -17.5717 -17.5260
   -17.4997 -17.4586 -17.3480 -17.3434 -11.6174 -11.5927 -11.2835 -11.2540
   -10.1933 -10.0492  -9.8523  -9.7164  -9.3249  -9.2990  -9.2474  -9.2151
    -9.0340  -8.9043  -8.7180  -8.6427  -8.2472  -8.1777  -7.9753  -7.8727
    -7.8364  -7.7427  -7.6327  -7.5619  -7.4706  -7.4173  -7.1875  -7.1466
    -6.9095  -6.7649  -6.6856  -6.4744  -6.3609  -6.3489  -6.2282  -6.1837
    -6.0964  -5.7783  -5.6507  -5.5786  -5.1452  -5.1283  -5.0886  -5.0638
    -5.0126  -4.9385  -4.0937  -4.0513  -3.9792  -3.9111  -3.8584  -3.8094
    -2.4932  -2.4364  -2.3302  -2.2760  -1.3159  -1.1056  -0.9275  -0.9063
    -0.0457   0.0229   0.0876   0.1525   0.1711   0.1927   0.2081   0.3319
     0.4674   0.5577   0.6110   0.7219   0.9677   1.1124   1.1366   1.2382
     1.7780   1.8354   1.8915   2.0171   2.1978   2.2397   2.2852   2.3381
     2.4010   2.4201   2.4863   2.5702   2.5894   2.6517   2.6938   2.7682
     2.7867   2.8467   2.9411   3.0240   3.0428   3.1407   3.2728   3.3241
     3.3407   3.4063   3.7236   3.7514   3.7972   3.8336   3.8857   3.8953
     4.1477   4.2090   4.2497   4.3209   4.3491   4.3846   4.6984   4.7590
     4.7774   4.8380   4.8640   4.9125   5.1299   5.2624   5.2747   5.3549
     5.4162   5.4947   5.5204   5.5846   5.6185   5.6432   5.7102   5.7302
     5.9517   6.0550   6.3710   6.4310   6.4656   6.5400   6.5663   6.6450
     6.6542   6.7657   6.8288   6.8488   6.8929   6.9368   7.1245   7.1700
     7.3599   7.3898   7.4339   7.4798   7.7263   7.8048   7.8311   7.8353
     7.9196   7.9338   8.1602   8.2627   8.3185   8.3839   8.4120   8.5059
     8.6292   8.7253   8.8575   8.9173   8.9441   8.9821   9.0209   9.0374
     9.0568   9.0627   9.2318   9.2735   9.3473   9.3914   9.4808   9.5212
     9.8350   9.8926   9.9104   9.9621   9.9792  10.0398  10.2032  10.2645
    10.3932  10.4198  10.4838  10.5041  10.6170  10.6366  10.6812  10.6927
    10.8840  10.9563  10.9846  11.0245  11.2718  11.3379  11.4101  11.4364
    11.4833  11.5025  11.6558  11.7494  11.7781  11.8003  11.8273  11.8951
    11.9705  12.0351  12.1088  12.1384  12.1639  12.2228  12.2544  12.2674
    12.3112  12.3383  12.5196  12.5869  12.5923  12.6199  12.6487  12.7166
    12.8771  12.9175  12.9231  12.9766  12.9827  13.0036  13.0160  13.0371
    13.0729  13.1149  13.1473  13.1911  13.2751  13.2926  13.3321  13.3706
    13.4621  13.5183  13.5388  13.5627  13.7436  13.7841  13.8444  13.9037
    13.9842  14.0537  14.0720  14.1024  14.1223  14.1662  14.2623  14.2975
    14.3549  14.3677  14.3737  14.4516  14.4743  14.5176  14.5233  14.5617
    14.6716  14.7352  14.8573  14.8938  14.9130  14.9371  14.9555  14.9728
    15.0574  15.0991  15.2215  15.2409  15.2735  15.2999  15.3435  15.3634
    15.4188  15.4214  15.5844  15.6361  15.6439  15.6852  15.7005  15.7627
    15.8175  15.8878  15.8933  15.9109  15.9204  15.9335  15.9821  15.9897
    16.1677  16.2303  16.2941  16.3591  16.3826  16.4447  16.4707  16.4984
    16.5353  16.5477  16.6718  16.7231  16.7734  16.8113  16.8472  16.8797
    16.9437  16.9717  17.0032  17.0462  17.0668  17.0822  17.1045  17.1367
    17.2447  17.2982  17.3251  17.3729  17.4824  17.5400  17.6886  17.7518
    17.7600  17.8038  17.8482  17.8768  17.9237  17.9878  18.1171  18.1624
    18.1871  18.2074  18.3846  18.4749  18.4864  18.5094  18.5528  18.5633
    18.5750  18.6355  18.6557  18.6982  18.7352  18.7828  18.9607  18.9780
    19.0274  19.0588  19.0662  19.0910  19.1291  19.1506  19.2193  19.2559
    19.2718  19.2827  19.3182  19.3242  19.3455  19.3933  19.4707  19.5296
    19.6047  19.6224  19.6406  19.6666  19.6872  19.6979  19.7689  19.8373
    19.8773  19.9368  19.9705  20.0142  20.0267  20.0995  20.1180  20.1185
    20.1206  20.1548  20.2046  20.2145  20.3029  20.3525  20.4411  20.4836
    20.5030  20.5306  20.6014  20.6619  20.6758  20.7156  20.7426  20.8111
    20.8137  20.8696  20.8845  20.9635  20.9914  21.0115  21.0400  21.0620
    21.1013  21.1156  21.1600  21.1683  21.2128  21.2443  21.2765  21.3430
    21.3641  21.4125  21.4380  21.4760  21.5003  21.5807  21.6157  21.6645
    21.6814  21.6879  21.6952  21.7255  21.8966  21.9411  21.9998  22.0771
    22.0946  22.1286  22.1547  22.2420  22.2614  22.2703  22.3142  22.3398
    22.3806  22.3879  22.4191  22.4532  22.5686  22.6473  22.6609  22.6836
    22.7310  22.7397  22.8369  22.8756  22.8944  22.9883  23.0313  23.1033
    23.1157  23.1749  23.2059  23.2988  23.3647  23.4168  23.4614  23.5221
    23.5357  23.5411  23.5799  23.5823  23.5887  23.6220  23.6560  23.6902
    23.7158  23.7630  23.7945  23.8475  23.8647  23.9210  23.9671  24.0291
    24.0900  24.1170  24.1483  24.1800  24.1989  24.2357  24.2425  24.2901
    24.3288  24.4031  24.4239  24.4491  24.4789  24.4922  24.5162  24.5394
    24.6180  24.6431  24.6878  24.7257  24.7729  24.8102  24.8481  24.8927
    24.9001  24.9532  24.9903  25.0423  25.0685  25.1252  25.1445  25.2056
    25.2317  25.2836  25.3027  25.3548  25.4145  25.4817  25.5030  25.5525
    25.5674  25.5889  25.6267  25.6414  25.6713  25.6876  25.7078  25.7648
    25.8311  25.8848  25.9418  25.9950  26.0043  26.0714  26.1032  26.1126
    26.1578  26.1627  26.2723  26.3161  26.3510  26.3582  26.3839  26.4466
    26.5869  26.6416  26.6489  26.7094  26.7316  26.7328  26.7798  26.8057
    26.8574  26.8843  26.9049  26.9262  26.9346  27.0053  27.0759  27.1269
    27.1426  27.1775  27.2004  27.2490  27.2566  27.3116  27.3344  27.3779

     occupation numbers 
     1.0000   1.0000   1.0000   1.0000   1.0000   1.0000   1.0000   1.0000
     1.0000   1.0000   1.0000   1.0000   1.0000   1.0000   1.0000   1.0000
     1.0000   1.0000   1.0000   1.0000   1.0000   1.0000   1.0000   1.0000
     1.0000   1.0000   1.0000   1.0000   1.0000   1.0000   1.0000   1.0000
     1.0000   1.0000   1.0000   1.0000   1.0000   1.0000   1.0000   1.0000
     1.0000   1.0000   1.0000   1.0000   1.0000   1.0000   1.0000   1.0000
     1.0000   1.0000   1.0000   1.0000   1.0000   1.0000   1.0000   1.0000
     1.0000   1.0000   1.0000   1.0000   1.0000   1.0000   1.0000   1.0000
     1.0000   1.0000   1.0000   1.0000   0.0000   0.0000   0.0000   0.0000
     0.0000   0.0000   0.0000   0.0000   0.0000   0.0000   0.0000   0.0000
     0.0000   0.0000   0.0000   0.0000   0.0000   0.0000   0.0000   0.0000
     0.0000   0.0000   0.0000   0.0000   0.0000   0.0000   0.0000   0.0000
     0.0000   0.0000   0.0000   0.0000   0.0000   0.0000   0.0000   0.0000
     0.0000   0.0000   0.0000   0.0000   0.0000   0.0000   0.0000   0.0000
     0.0000   0.0000   0.0000   0.0000   0.0000   0.0000   0.0000   0.0000
     0.0000   0.0000   0.0000   0.0000   0.0000   0.0000   0.0000   0.0000
     0.0000   0.0000   0.0000   0.0000   0.0000   0.0000   0.0000   0.0000
     0.0000   0.0000   0.0000   0.0000   0.0000   0.0000   0.0000   0.0000
     0.0000   0.0000   0.0000   0.0000   0.0000   0.0000   0.0000   0.0000
     0.0000   0.0000   0.0000   0.0000   0.0000   0.0000   0.0000   0.0000
     0.0000   0.0000   0.0000   0.0000   0.0000   0.0000   0.0000   0.0000
     0.0000   0.0000   0.0000   0.0000   0.0000   0.0000   0.0000   0.0000
     0.0000   0.0000   0.0000   0.0000   0.0000   0.0000   0.0000   0.0000
     0.0000   0.0000   0.0000   0.0000   0.0000   0.0000   0.0000   0.0000
     0.0000   0.0000   0.0000   0.0000   0.0000   0.0000   0.0000   0.0000
     0.0000   0.0000   0.0000   0.0000   0.0000   0.0000   0.0000   0.0000
     0.0000   0.0000   0.0000   0.0000   0.0000   0.0000   0.0000   0.0000
     0.0000   0.0000   0.0000   0.0000   0.0000   0.0000   0.0000   0.0000
     0.0000   0.0000   0.0000   0.0000   0.0000   0.0000   0.0000   0.0000
     0.0000   0.0000   0.0000   0.0000   0.0000   0.0000   0.0000   0.0000
     0.0000   0.0000   0.0000   0.0000   0.0000   0.0000   0.0000   0.0000
     0.0000   0.0000   0.0000   0.0000   0.0000   0.0000   0.0000   0.0000
     0.0000   0.0000   0.0000   0.0000   0.0000   0.0000   0.0000   0.0000
     0.0000   0.0000   0.0000   0.0000   0.0000   0.0000   0.0000   0.0000
     0.0000   0.0000   0.0000   0.0000   0.0000   0.0000   0.0000   0.0000
     0.0000   0.0000   0.0000   0.0000   0.0000   0.0000   0.0000   0.0000
     0.0000   0.0000   0.0000   0.0000   0.0000   0.0000   0.0000   0.0000
     0.0000   0.0000   0.0000   0.0000   0.0000   0.0000   0.0000   0.0000
     0.0000   0.0000   0.0000   0.0000   0.0000   0.0000   0.0000   0.0000
     0.0000   0.0000   0.0000   0.0000   0.0000   0.0000   0.0000   0.0000
     0.0000   0.0000   0.0000   0.0000   0.0000   0.0000   0.0000   0.0000
     0.0000   0.0000   0.0000   0.0000   0.0000   0.0000   0.0000   0.0000
     0.0000   0.0000   0.0000   0.0000   0.0000   0.0000   0.0000   0.0000
     0.0000   0.0000   0.0000   0.0000   0.0000   0.0000   0.0000   0.0000
     0.0000   0.0000   0.0000   0.0000   0.0000   0.0000   0.0000   0.0000
     0.0000   0.0000   0.0000   0.0000   0.0000   0.0000   0.0000   0.0000
     0.0000   0.0000   0.0000   0.0000   0.0000   0.0000   0.0000   0.0000
     0.0000   0.0000   0.0000   0.0000   0.0000   0.0000   0.0000   0.0000
     0.0000   0.0000   0.0000   0.0000   0.0000   0.0000   0.0000   0.0000
     0.0000   0.0000   0.0000   0.0000   0.0000   0.0000   0.0000   0.0000
     0.0000   0.0000   0.0000   0.0000   0.0000   0.0000   0.0000   0.0000
     0.0000   0.0000   0.0000   0.0000   0.0000   0.0000   0.0000   0.0000
     0.0000   0.0000   0.0000   0.0000   0.0000   0.0000   0.0000   0.0000
     0.0000   0.0000   0.0000   0.0000   0.0000   0.0000   0.0000   0.0000
     0.0000   0.0000   0.0000   0.0000   0.0000   0.0000   0.0000   0.0000
     0.0000   0.0000   0.0000   0.0000   0.0000   0.0000   0.0000   0.0000
     0.0000   0.0000   0.0000   0.0000   0.0000   0.0000   0.0000   0.0000
     0.0000   0.0000   0.0000   0.0000   0.0000   0.0000   0.0000   0.0000
     0.0000   0.0000   0.0000   0.0000   0.0000   0.0000   0.0000   0.0000
     0.0000   0.0000   0.0000   0.0000   0.0000   0.0000   0.0000   0.0000
     0.0000   0.0000   0.0000   0.0000   0.0000   0.0000   0.0000   0.0000
     0.0000   0.0000   0.0000   0.0000   0.0000   0.0000   0.0000   0.0000
     0.0000   0.0000   0.0000   0.0000   0.0000   0.0000   0.0000   0.0000
     0.0000   0.0000   0.0000   0.0000   0.0000   0.0000   0.0000   0.0000
     0.0000   0.0000   0.0000   0.0000   0.0000   0.0000   0.0000   0.0000
     0.0000   0.0000   0.0000   0.0000   0.0000   0.0000   0.0000   0.0000
     0.0000   0.0000   0.0000   0.0000   0.0000   0.0000   0.0000   0.0000
     0.0000   0.0000   0.0000   0.0000   0.0000   0.0000   0.0000   0.0000
     0.0000   0.0000   0.0000   0.0000   0.0000   0.0000   0.0000   0.0000
     0.0000   0.0000   0.0000   0.0000   0.0000   0.0000   0.0000   0.0000
     0.0000   0.0000   0.0000   0.0000   0.0000   0.0000   0.0000   0.0000
     0.0000   0.0000   0.0000   0.0000   0.0000   0.0000   0.0000   0.0000
     0.0000   0.0000   0.0000   0.0000   0.0000   0.0000   0.0000   0.0000
     0.0000   0.0000   0.0000   0.0000   0.0000   0.0000   0.0000   0.0000
     0.0000   0.0000   0.0000   0.0000   0.0000   0.0000   0.0000   0.0000

          k = 0.1667 0.0962 0.0000 ( 59490 PWs)   bands (ev):

   -73.4619 -73.4615 -71.3728 -71.3723 -47.5888 -47.5853 -47.2965 -47.2955
   -46.9699 -46.9660 -45.3666 -45.3625 -45.0707 -45.0694 -44.8944 -44.8898
   -18.4221 -18.3980 -17.8729 -17.8423 -17.6257 -17.6113 -17.5717 -17.5260
   -17.4997 -17.4586 -17.3480 -17.3435 -11.6174 -11.5927 -11.2835 -11.2540
   -10.1933 -10.0492  -9.8523  -9.7164  -9.3250  -9.2990  -9.2474  -9.2151
    -9.0341  -8.9042  -8.7180  -8.6426  -8.2472  -8.1778  -7.9754  -7.8727
    -7.8364  -7.7427  -7.6327  -7.5619  -7.4706  -7.4173  -7.1875  -7.1466
    -6.9095  -6.7649  -6.6856  -6.4744  -6.3609  -6.3489  -6.2282  -6.1837
    -6.0964  -5.7783  -5.6507  -5.5786  -5.1452  -5.1283  -5.0886  -5.0638
    -5.0126  -4.9385  -4.0937  -4.0513  -3.9792  -3.9111  -3.8584  -3.8094
    -2.4932  -2.4364  -2.3302  -2.2760  -1.3159  -1.1056  -0.9275  -0.9063
    -0.0458   0.0230   0.0875   0.1525   0.1711   0.1927   0.2081   0.3319
     0.4674   0.5576   0.6111   0.7219   0.9677   1.1123   1.1367   1.2382
     1.7780   1.8354   1.8915   2.0171   2.1977   2.2398   2.2852   2.3380
     2.4010   2.4201   2.4863   2.5702   2.5894   2.6517   2.6938   2.7682
     2.7867   2.8468   2.9411   3.0240   3.0428   3.1407   3.2728   3.3241
     3.3407   3.4063   3.7236   3.7514   3.7972   3.8335   3.8857   3.8954
     4.1477   4.2090   4.2497   4.3210   4.3491   4.3846   4.6984   4.7590
     4.7774   4.8380   4.8639   4.9125   5.1299   5.2623   5.2747   5.3549
     5.4162   5.4947   5.5205   5.5846   5.6185   5.6432   5.7102   5.7302
     5.9517   6.0550   6.3710   6.4310   6.4656   6.5400   6.5664   6.6449
     6.6542   6.7657   6.8288   6.8488   6.8929   6.9368   7.1245   7.1700
     7.3598   7.3898   7.4339   7.4799   7.7263   7.8048   7.8310   7.8353
     7.9196   7.9338   8.1602   8.2627   8.3185   8.3839   8.4121   8.5059
     8.6292   8.7253   8.8575   8.9173   8.9441   8.9821   9.0209   9.0374
     9.0568   9.0627   9.2318   9.2735   9.3472   9.3914   9.4808   9.5212
     9.8350   9.8925   9.9105   9.9622   9.9792  10.0398  10.2032  10.2645
    10.3932  10.4198  10.4838  10.5041  10.6170  10.6366  10.6811  10.6927
    10.8840  10.9563  10.9846  11.0245  11.2718  11.3379  11.4101  11.4364
    11.4832  11.5025  11.6558  11.7494  11.7780  11.8004  11.8273  11.8951
    11.9705  12.0351  12.1088  12.1384  12.1639  12.2228  12.2544  12.2674
    12.3112  12.3383  12.5196  12.5869  12.5923  12.6199  12.6487  12.7166
    12.8770  12.9176  12.9231  12.9766  12.9827  13.0036  13.0160  13.0371
    13.0729  13.1149  13.1473  13.1911  13.2751  13.2926  13.3321  13.3706
    13.4621  13.5183  13.5388  13.5627  13.7436  13.7841  13.8444  13.9037
    13.9841  14.0537  14.0721  14.1024  14.1223  14.1662  14.2623  14.2975
    14.3549  14.3677  14.3736  14.4517  14.4744  14.5176  14.5234  14.5617
    14.6716  14.7352  14.8573  14.8938  14.9129  14.9371  14.9555  14.9728
    15.0574  15.0991  15.2215  15.2409  15.2735  15.2999  15.3435  15.3634
    15.4188  15.4214  15.5844  15.6361  15.6439  15.6852  15.7005  15.7627
    15.8175  15.8878  15.8933  15.9109  15.9204  15.9335  15.9821  15.9897
    16.1677  16.2304  16.2941  16.3591  16.3826  16.4447  16.4707  16.4984
    16.5353  16.5478  16.6718  16.7231  16.7734  16.8113  16.8472  16.8796
    16.9437  16.9717  17.0032  17.0462  17.0668  17.0822  17.1045  17.1368
    17.2447  17.2982  17.3251  17.3729  17.4824  17.5400  17.6886  17.7518
    17.7600  17.8038  17.8482  17.8768  17.9237  17.9878  18.1171  18.1624
    18.1871  18.2074  18.3846  18.4749  18.4864  18.5094  18.5528  18.5633
    18.5751  18.6355  18.6557  18.6982  18.7352  18.7828  18.9607  18.9780
    19.0274  19.0588  19.0662  19.0910  19.1291  19.1506  19.2194  19.2558
    19.2718  19.2827  19.3182  19.3243  19.3455  19.3933  19.4707  19.5296
    19.6047  19.6224  19.6406  19.6666  19.6873  19.6980  19.7689  19.8373
    19.8773  19.9368  19.9705  20.0142  20.0267  20.0995  20.1180  20.1185
    20.1207  20.1548  20.2046  20.2145  20.3029  20.3525  20.4411  20.4836
    20.5030  20.5306  20.6014  20.6619  20.6758  20.7156  20.7426  20.8111
    20.8137  20.8696  20.8845  20.9635  20.9914  21.0115  21.0400  21.0620
    21.1012  21.1156  21.1600  21.1683  21.2128  21.2444  21.2764  21.3430
    21.3640  21.4125  21.4380  21.4760  21.5003  21.5807  21.6156  21.6645
    21.6814  21.6879  21.6952  21.7255  21.8966  21.9410  21.9998  22.0771
    22.0946  22.1287  22.1547  22.2420  22.2614  22.2703  22.3142  22.3398
    22.3806  22.3880  22.4192  22.4533  22.5686  22.6474  22.6609  22.6835
    22.7310  22.7397  22.8369  22.8757  22.8944  22.9883  23.0313  23.1032
    23.1158  23.1750  23.2059  23.2988  23.3647  23.4167  23.4614  23.5221
    23.5357  23.5411  23.5799  23.5823  23.5887  23.6220  23.6560  23.6902
    23.7157  23.7630  23.7944  23.8476  23.8646  23.9210  23.9671  24.0291
    24.0900  24.1170  24.1483  24.1800  24.1989  24.2357  24.2425  24.2901
    24.3288  24.4030  24.4239  24.4491  24.4788  24.4922  24.5162  24.5394
    24.6180  24.6431  24.6878  24.7257  24.7729  24.8102  24.8481  24.8927
    24.9001  24.9532  24.9903  25.0423  25.0685  25.1253  25.1445  25.2056
    25.2317  25.2836  25.3027  25.3548  25.4145  25.4817  25.5030  25.5525
    25.5674  25.5889  25.6267  25.6414  25.6713  25.6876  25.7078  25.7648
    25.8311  25.8848  25.9418  25.9950  26.0042  26.0713  26.1032  26.1126
    26.1578  26.1627  26.2723  26.3161  26.3509  26.3582  26.3838  26.4466
    26.5869  26.6416  26.6489  26.7094  26.7316  26.7328  26.7798  26.8057
    26.8573  26.8843  26.9049  26.9262  26.9346  27.0053  27.0759  27.1269
    27.1426  27.1775  27.2005  27.2490  27.2566  27.3116  27.3344  27.3779

     occupation numbers 
     1.0000   1.0000   1.0000   1.0000   1.0000   1.0000   1.0000   1.0000
     1.0000   1.0000   1.0000   1.0000   1.0000   1.0000   1.0000   1.0000
     1.0000   1.0000   1.0000   1.0000   1.0000   1.0000   1.0000   1.0000
     1.0000   1.0000   1.0000   1.0000   1.0000   1.0000   1.0000   1.0000
     1.0000   1.0000   1.0000   1.0000   1.0000   1.0000   1.0000   1.0000
     1.0000   1.0000   1.0000   1.0000   1.0000   1.0000   1.0000   1.0000
     1.0000   1.0000   1.0000   1.0000   1.0000   1.0000   1.0000   1.0000
     1.0000   1.0000   1.0000   1.0000   1.0000   1.0000   1.0000   1.0000
     1.0000   1.0000   1.0000   1.0000   0.0000   0.0000   0.0000   0.0000
     0.0000   0.0000   0.0000   0.0000   0.0000   0.0000   0.0000   0.0000
     0.0000   0.0000   0.0000   0.0000   0.0000   0.0000   0.0000   0.0000
     0.0000   0.0000   0.0000   0.0000   0.0000   0.0000   0.0000   0.0000
     0.0000   0.0000   0.0000   0.0000   0.0000   0.0000   0.0000   0.0000
     0.0000   0.0000   0.0000   0.0000   0.0000   0.0000   0.0000   0.0000
     0.0000   0.0000   0.0000   0.0000   0.0000   0.0000   0.0000   0.0000
     0.0000   0.0000   0.0000   0.0000   0.0000   0.0000   0.0000   0.0000
     0.0000   0.0000   0.0000   0.0000   0.0000   0.0000   0.0000   0.0000
     0.0000   0.0000   0.0000   0.0000   0.0000   0.0000   0.0000   0.0000
     0.0000   0.0000   0.0000   0.0000   0.0000   0.0000   0.0000   0.0000
     0.0000   0.0000   0.0000   0.0000   0.0000   0.0000   0.0000   0.0000
     0.0000   0.0000   0.0000   0.0000   0.0000   0.0000   0.0000   0.0000
     0.0000   0.0000   0.0000   0.0000   0.0000   0.0000   0.0000   0.0000
     0.0000   0.0000   0.0000   0.0000   0.0000   0.0000   0.0000   0.0000
     0.0000   0.0000   0.0000   0.0000   0.0000   0.0000   0.0000   0.0000
     0.0000   0.0000   0.0000   0.0000   0.0000   0.0000   0.0000   0.0000
     0.0000   0.0000   0.0000   0.0000   0.0000   0.0000   0.0000   0.0000
     0.0000   0.0000   0.0000   0.0000   0.0000   0.0000   0.0000   0.0000
     0.0000   0.0000   0.0000   0.0000   0.0000   0.0000   0.0000   0.0000
     0.0000   0.0000   0.0000   0.0000   0.0000   0.0000   0.0000   0.0000
     0.0000   0.0000   0.0000   0.0000   0.0000   0.0000   0.0000   0.0000
     0.0000   0.0000   0.0000   0.0000   0.0000   0.0000   0.0000   0.0000
     0.0000   0.0000   0.0000   0.0000   0.0000   0.0000   0.0000   0.0000
     0.0000   0.0000   0.0000   0.0000   0.0000   0.0000   0.0000   0.0000
     0.0000   0.0000   0.0000   0.0000   0.0000   0.0000   0.0000   0.0000
     0.0000   0.0000   0.0000   0.0000   0.0000   0.0000   0.0000   0.0000
     0.0000   0.0000   0.0000   0.0000   0.0000   0.0000   0.0000   0.0000
     0.0000   0.0000   0.0000   0.0000   0.0000   0.0000   0.0000   0.0000
     0.0000   0.0000   0.0000   0.0000   0.0000   0.0000   0.0000   0.0000
     0.0000   0.0000   0.0000   0.0000   0.0000   0.0000   0.0000   0.0000
     0.0000   0.0000   0.0000   0.0000   0.0000   0.0000   0.0000   0.0000
     0.0000   0.0000   0.0000   0.0000   0.0000   0.0000   0.0000   0.0000
     0.0000   0.0000   0.0000   0.0000   0.0000   0.0000   0.0000   0.0000
     0.0000   0.0000   0.0000   0.0000   0.0000   0.0000   0.0000   0.0000
     0.0000   0.0000   0.0000   0.0000   0.0000   0.0000   0.0000   0.0000
     0.0000   0.0000   0.0000   0.0000   0.0000   0.0000   0.0000   0.0000
     0.0000   0.0000   0.0000   0.0000   0.0000   0.0000   0.0000   0.0000
     0.0000   0.0000   0.0000   0.0000   0.0000   0.0000   0.0000   0.0000
     0.0000   0.0000   0.0000   0.0000   0.0000   0.0000   0.0000   0.0000
     0.0000   0.0000   0.0000   0.0000   0.0000   0.0000   0.0000   0.0000
     0.0000   0.0000   0.0000   0.0000   0.0000   0.0000   0.0000   0.0000
     0.0000   0.0000   0.0000   0.0000   0.0000   0.0000   0.0000   0.0000
     0.0000   0.0000   0.0000   0.0000   0.0000   0.0000   0.0000   0.0000
     0.0000   0.0000   0.0000   0.0000   0.0000   0.0000   0.0000   0.0000
     0.0000   0.0000   0.0000   0.0000   0.0000   0.0000   0.0000   0.0000
     0.0000   0.0000   0.0000   0.0000   0.0000   0.0000   0.0000   0.0000
     0.0000   0.0000   0.0000   0.0000   0.0000   0.0000   0.0000   0.0000
     0.0000   0.0000   0.0000   0.0000   0.0000   0.0000   0.0000   0.0000
     0.0000   0.0000   0.0000   0.0000   0.0000   0.0000   0.0000   0.0000
     0.0000   0.0000   0.0000   0.0000   0.0000   0.0000   0.0000   0.0000
     0.0000   0.0000   0.0000   0.0000   0.0000   0.0000   0.0000   0.0000
     0.0000   0.0000   0.0000   0.0000   0.0000   0.0000   0.0000   0.0000
     0.0000   0.0000   0.0000   0.0000   0.0000   0.0000   0.0000   0.0000
     0.0000   0.0000   0.0000   0.0000   0.0000   0.0000   0.0000   0.0000
     0.0000   0.0000   0.0000   0.0000   0.0000   0.0000   0.0000   0.0000
     0.0000   0.0000   0.0000   0.0000   0.0000   0.0000   0.0000   0.0000
     0.0000   0.0000   0.0000   0.0000   0.0000   0.0000   0.0000   0.0000
     0.0000   0.0000   0.0000   0.0000   0.0000   0.0000   0.0000   0.0000
     0.0000   0.0000   0.0000   0.0000   0.0000   0.0000   0.0000   0.0000
     0.0000   0.0000   0.0000   0.0000   0.0000   0.0000   0.0000   0.0000
     0.0000   0.0000   0.0000   0.0000   0.0000   0.0000   0.0000   0.0000
     0.0000   0.0000   0.0000   0.0000   0.0000   0.0000   0.0000   0.0000
     0.0000   0.0000   0.0000   0.0000   0.0000   0.0000   0.0000   0.0000
     0.0000   0.0000   0.0000   0.0000   0.0000   0.0000   0.0000   0.0000
     0.0000   0.0000   0.0000   0.0000   0.0000   0.0000   0.0000   0.0000
     0.0000   0.0000   0.0000   0.0000   0.0000   0.0000   0.0000   0.0000

          k = 0.1667 0.2887 0.0000 ( 59517 PWs)   bands (ev):

   -73.4619 -73.4615 -71.3727 -71.3723 -47.5884 -47.5858 -47.2964 -47.2956
   -46.9694 -46.9665 -45.3661 -45.3630 -45.0706 -45.0695 -44.8938 -44.8903
   -18.3117 -18.2861 -17.8353 -17.7626 -17.6750 -17.6677 -17.6232 -17.6129
   -17.5604 -17.5359 -17.3876 -17.3597 -11.6541 -11.6106 -11.3140 -11.2421
   -10.1649 -10.0349  -9.8211  -9.6922  -9.3617  -9.3415  -9.2509  -9.2330
    -8.9566  -8.8839  -8.4759  -8.4009  -8.0263  -7.9334  -7.9051  -7.8225
    -7.6879  -7.6543  -7.5510  -7.5270  -7.4455  -7.3247  -7.2552  -7.1822
    -6.9470  -6.8688  -6.8152  -6.6307  -6.6094  -6.4577  -6.3590  -6.1789
    -6.0451  -6.0251  -5.9750  -5.4673  -5.2552  -5.1466  -5.1193  -5.0623
    -4.9913  -4.9609  -4.1304  -4.0880  -3.9837  -3.8559  -3.8405  -3.8039
    -2.5408  -2.4292  -2.3327  -2.2553  -1.3130  -0.9288  -0.8553  -0.5888
    -0.2797  -0.1456  -0.0008   0.1428   0.2706   0.2916   0.3371   0.4235
     0.5471   0.6486   0.6851   0.8328   1.1012   1.1952   1.2587   1.3594
     1.3632   1.4083   1.4882   1.5352   1.6000   1.6194   1.7804   1.8796
     2.1255   2.1678   2.2140   2.2478   2.3483   2.4192   2.4832   2.6725
     2.7860   2.8586   3.0267   3.0742   3.1122   3.1534   3.3905   3.4421
     3.4627   3.4848   3.5348   3.5730   3.6993   3.7446   3.7866   3.8855
     4.1185   4.1316   4.1732   4.2770   4.5289   4.5922   4.6891   4.8168
     5.0198   5.1107   5.1197   5.2263   5.2490   5.3205   5.4283   5.5114
     5.5587   5.6149   5.8128   5.8401   5.8731   5.8892   6.0196   6.0587
     6.2205   6.2724   6.3383   6.4008   6.4102   6.4740   7.0756   7.1487
     7.1522   7.1997   7.2864   7.3019   7.3102   7.3772   7.4193   7.4909
     7.6736   7.7145   7.7618   7.7845   7.7983   7.8329   8.0109   8.1006
     8.2305   8.3164   8.3946   8.4662   8.6315   8.6998   8.7326   8.8062
     8.8164   8.8511   9.0882   9.1191   9.1240   9.1381   9.2161   9.2931
     9.3292   9.3724   9.5584   9.5861   9.6146   9.6420   9.6777   9.6898
     9.7907   9.8230   9.9137   9.9669   9.9902  10.0215  10.0721  10.1065
    10.1940  10.2491  10.2899  10.3032  10.3354  10.3710  10.3997  10.4751
    10.5895  10.7168  10.7954  10.8658  10.9056  10.9414  11.0293  11.0875
    11.0922  11.1245  11.1419  11.1777  11.1931  11.2089  11.2356  11.2607
    11.4118  11.4468  11.5304  11.6328  11.7929  11.8348  11.8556  11.9277
    11.9381  11.9578  12.0011  12.0391  12.0540  12.0660  12.3125  12.3672
    12.6863  12.7282  12.7363  12.7544  12.7952  12.8071  12.8688  12.9235
    13.0517  13.1012  13.1234  13.1584  13.1939  13.2234  13.2909  13.3545
    13.7781  13.7870  13.8509  13.8583  13.9535  13.9672  14.0133  14.0230
    14.0471  14.0906  14.1156  14.1270  14.1608  14.2144  14.3674  14.4075
    14.4289  14.4615  14.4936  14.5258  14.6005  14.6457  14.6585  14.6843
    14.7058  14.7760  14.8044  14.8383  14.8807  14.9095  14.9402  14.9836
    14.9997  15.0469  15.0525  15.1707  15.2111  15.2422  15.2855  15.3135
    15.3824  15.4214  15.6340  15.6901  15.6995  15.7509  15.7814  15.8175
    15.8433  15.8614  15.9054  15.9768  16.0510  16.0948  16.1232  16.1508
    16.2002  16.2451  16.2940  16.3099  16.3432  16.3733  16.4355  16.4691
    16.4885  16.5051  16.6180  16.6848  16.8383  16.8809  16.9072  16.9388
    16.9734  16.9893  17.0721  17.0751  17.1881  17.2070  17.2535  17.2680
    17.3240  17.3634  17.4512  17.4800  17.5034  17.5267  17.5913  17.6378
    17.6501  17.7322  17.7488  17.7689  17.8951  17.9514  18.1420  18.1749
    18.1925  18.2232  18.3198  18.3531  18.3844  18.4004  18.4864  18.5207
    18.5241  18.5444  18.5515  18.5599  18.6037  18.6119  18.6810  18.6875
    18.7369  18.7422  18.7738  18.8242  18.8873  18.9401  19.0525  19.0828
    19.1319  19.1559  19.1612  19.2131  19.2306  19.2664  19.3433  19.3781
    19.4540  19.4776  19.5091  19.5127  19.5855  19.6610  19.9225  19.9977
    20.0718  20.0849  20.1195  20.1238  20.1611  20.1906  20.2080  20.2488
    20.3684  20.4089  20.4260  20.4586  20.4684  20.4880  20.5115  20.5333
    20.5416  20.5801  20.6059  20.6368  20.6799  20.7340  20.8914  20.9421
    20.9541  20.9898  21.0772  21.1126  21.1441  21.1663  21.1682  21.2199
    21.2259  21.3149  21.3308  21.3757  21.3927  21.4491  21.5281  21.5387
    21.5529  21.5864  21.6135  21.6232  21.6519  21.7142  21.7279  21.7703
    21.8266  21.8454  21.8534  21.8893  21.9165  21.9592  22.0304  22.0903
    22.1354  22.1465  22.1753  22.2109  22.3387  22.3712  22.3976  22.4184
    22.4305  22.4656  22.4862  22.5416  22.5710  22.5818  22.6225  22.6450
    22.6912  22.7167  22.8109  22.8415  22.8991  22.9076  22.9681  22.9749
    23.0344  23.0931  23.1230  23.1640  23.1989  23.2078  23.2486  23.2960
    23.4316  23.4712  23.4890  23.5402  23.6828  23.6903  23.7404  23.7719
    23.8635  23.8741  23.9246  23.9391  23.9478  23.9784  24.0134  24.0641
    24.0823  24.0887  24.1277  24.1624  24.1746  24.1922  24.2325  24.2578
    24.2843  24.3296  24.3637  24.4001  24.6109  24.6973  24.7144  24.7562
    24.7612  24.8039  24.8270  24.8568  24.8872  24.9153  24.9245  24.9469
    24.9762  24.9985  25.1133  25.1478  25.1848  25.2470  25.3245  25.3943
    25.3981  25.4213  25.4731  25.4779  25.5026  25.5208  25.5296  25.6130
    25.6706  25.7326  25.7445  25.7924  25.8077  25.8371  25.8639  25.8903
    25.9215  25.9661  26.0107  26.0528  26.0637  26.1104  26.1491  26.1754
    26.1839  26.2318  26.2907  26.3360  26.4029  26.4403  26.4741  26.5082
    26.5211  26.5752  26.5830  26.6202  26.8001  26.8275  26.8474  26.8534
    26.8876  26.8905  26.9607  27.0132  27.0397  27.0650  27.1182  27.1380
    27.1525  27.2157  27.2392  27.2886  27.2969  27.3196  27.3493  27.3633

     occupation numbers 
     1.0000   1.0000   1.0000   1.0000   1.0000   1.0000   1.0000   1.0000
     1.0000   1.0000   1.0000   1.0000   1.0000   1.0000   1.0000   1.0000
     1.0000   1.0000   1.0000   1.0000   1.0000   1.0000   1.0000   1.0000
     1.0000   1.0000   1.0000   1.0000   1.0000   1.0000   1.0000   1.0000
     1.0000   1.0000   1.0000   1.0000   1.0000   1.0000   1.0000   1.0000
     1.0000   1.0000   1.0000   1.0000   1.0000   1.0000   1.0000   1.0000
     1.0000   1.0000   1.0000   1.0000   1.0000   1.0000   1.0000   1.0000
     1.0000   1.0000   1.0000   1.0000   1.0000   1.0000   1.0000   1.0000
     1.0000   1.0000   1.0000   1.0000   0.0000   0.0000   0.0000   0.0000
     0.0000   0.0000   0.0000   0.0000   0.0000   0.0000   0.0000   0.0000
     0.0000   0.0000   0.0000   0.0000   0.0000   0.0000   0.0000   0.0000
     0.0000   0.0000   0.0000   0.0000   0.0000   0.0000   0.0000   0.0000
     0.0000   0.0000   0.0000   0.0000   0.0000   0.0000   0.0000   0.0000
     0.0000   0.0000   0.0000   0.0000   0.0000   0.0000   0.0000   0.0000
     0.0000   0.0000   0.0000   0.0000   0.0000   0.0000   0.0000   0.0000
     0.0000   0.0000   0.0000   0.0000   0.0000   0.0000   0.0000   0.0000
     0.0000   0.0000   0.0000   0.0000   0.0000   0.0000   0.0000   0.0000
     0.0000   0.0000   0.0000   0.0000   0.0000   0.0000   0.0000   0.0000
     0.0000   0.0000   0.0000   0.0000   0.0000   0.0000   0.0000   0.0000
     0.0000   0.0000   0.0000   0.0000   0.0000   0.0000   0.0000   0.0000
     0.0000   0.0000   0.0000   0.0000   0.0000   0.0000   0.0000   0.0000
     0.0000   0.0000   0.0000   0.0000   0.0000   0.0000   0.0000   0.0000
     0.0000   0.0000   0.0000   0.0000   0.0000   0.0000   0.0000   0.0000
     0.0000   0.0000   0.0000   0.0000   0.0000   0.0000   0.0000   0.0000
     0.0000   0.0000   0.0000   0.0000   0.0000   0.0000   0.0000   0.0000
     0.0000   0.0000   0.0000   0.0000   0.0000   0.0000   0.0000   0.0000
     0.0000   0.0000   0.0000   0.0000   0.0000   0.0000   0.0000   0.0000
     0.0000   0.0000   0.0000   0.0000   0.0000   0.0000   0.0000   0.0000
     0.0000   0.0000   0.0000   0.0000   0.0000   0.0000   0.0000   0.0000
     0.0000   0.0000   0.0000   0.0000   0.0000   0.0000   0.0000   0.0000
     0.0000   0.0000   0.0000   0.0000   0.0000   0.0000   0.0000   0.0000
     0.0000   0.0000   0.0000   0.0000   0.0000   0.0000   0.0000   0.0000
     0.0000   0.0000   0.0000   0.0000   0.0000   0.0000   0.0000   0.0000
     0.0000   0.0000   0.0000   0.0000   0.0000   0.0000   0.0000   0.0000
     0.0000   0.0000   0.0000   0.0000   0.0000   0.0000   0.0000   0.0000
     0.0000   0.0000   0.0000   0.0000   0.0000   0.0000   0.0000   0.0000
     0.0000   0.0000   0.0000   0.0000   0.0000   0.0000   0.0000   0.0000
     0.0000   0.0000   0.0000   0.0000   0.0000   0.0000   0.0000   0.0000
     0.0000   0.0000   0.0000   0.0000   0.0000   0.0000   0.0000   0.0000
     0.0000   0.0000   0.0000   0.0000   0.0000   0.0000   0.0000   0.0000
     0.0000   0.0000   0.0000   0.0000   0.0000   0.0000   0.0000   0.0000
     0.0000   0.0000   0.0000   0.0000   0.0000   0.0000   0.0000   0.0000
     0.0000   0.0000   0.0000   0.0000   0.0000   0.0000   0.0000   0.0000
     0.0000   0.0000   0.0000   0.0000   0.0000   0.0000   0.0000   0.0000
     0.0000   0.0000   0.0000   0.0000   0.0000   0.0000   0.0000   0.0000
     0.0000   0.0000   0.0000   0.0000   0.0000   0.0000   0.0000   0.0000
     0.0000   0.0000   0.0000   0.0000   0.0000   0.0000   0.0000   0.0000
     0.0000   0.0000   0.0000   0.0000   0.0000   0.0000   0.0000   0.0000
     0.0000   0.0000   0.0000   0.0000   0.0000   0.0000   0.0000   0.0000
     0.0000   0.0000   0.0000   0.0000   0.0000   0.0000   0.0000   0.0000
     0.0000   0.0000   0.0000   0.0000   0.0000   0.0000   0.0000   0.0000
     0.0000   0.0000   0.0000   0.0000   0.0000   0.0000   0.0000   0.0000
     0.0000   0.0000   0.0000   0.0000   0.0000   0.0000   0.0000   0.0000
     0.0000   0.0000   0.0000   0.0000   0.0000   0.0000   0.0000   0.0000
     0.0000   0.0000   0.0000   0.0000   0.0000   0.0000   0.0000   0.0000
     0.0000   0.0000   0.0000   0.0000   0.0000   0.0000   0.0000   0.0000
     0.0000   0.0000   0.0000   0.0000   0.0000   0.0000   0.0000   0.0000
     0.0000   0.0000   0.0000   0.0000   0.0000   0.0000   0.0000   0.0000
     0.0000   0.0000   0.0000   0.0000   0.0000   0.0000   0.0000   0.0000
     0.0000   0.0000   0.0000   0.0000   0.0000   0.0000   0.0000   0.0000
     0.0000   0.0000   0.0000   0.0000   0.0000   0.0000   0.0000   0.0000
     0.0000   0.0000   0.0000   0.0000   0.0000   0.0000   0.0000   0.0000
     0.0000   0.0000   0.0000   0.0000   0.0000   0.0000   0.0000   0.0000
     0.0000   0.0000   0.0000   0.0000   0.0000   0.0000   0.0000   0.0000
     0.0000   0.0000   0.0000   0.0000   0.0000   0.0000   0.0000   0.0000
     0.0000   0.0000   0.0000   0.0000   0.0000   0.0000   0.0000   0.0000
     0.0000   0.0000   0.0000   0.0000   0.0000   0.0000   0.0000   0.0000
     0.0000   0.0000   0.0000   0.0000   0.0000   0.0000   0.0000   0.0000
     0.0000   0.0000   0.0000   0.0000   0.0000   0.0000   0.0000   0.0000
     0.0000   0.0000   0.0000   0.0000   0.0000   0.0000   0.0000   0.0000
     0.0000   0.0000   0.0000   0.0000   0.0000   0.0000   0.0000   0.0000
     0.0000   0.0000   0.0000   0.0000   0.0000   0.0000   0.0000   0.0000
     0.0000   0.0000   0.0000   0.0000   0.0000   0.0000   0.0000   0.0000
     0.0000   0.0000   0.0000   0.0000   0.0000   0.0000   0.0000   0.0000
     0.0000   0.0000   0.0000   0.0000   0.0000   0.0000   0.0000   0.0000

          k = 0.1667 0.4811 0.0000 ( 59462 PWs)   bands (ev):

   -73.4619 -73.4615 -71.3727 -71.3723 -47.5877 -47.5864 -47.2962 -47.2957
   -46.9687 -46.9672 -45.3654 -45.3638 -45.0703 -45.0698 -44.8930 -44.8912
   -18.1284 -18.0944 -17.8459 -17.8081 -17.7744 -17.7062 -17.6692 -17.6354
   -17.6024 -17.5936 -17.4737 -17.3874 -11.6752 -11.5856 -11.4096 -11.2395
   -10.1114  -9.9817  -9.7448  -9.6101  -9.3858  -9.3592  -9.0928  -9.0151
    -8.8301  -8.7469  -8.4557  -8.3283  -8.2771  -8.1936  -8.0287  -7.8851
    -7.7896  -7.5917  -7.5053  -7.3896  -7.3258  -7.2502  -7.1550  -7.0419
    -6.9029  -6.8638  -6.7812  -6.6893  -6.6123  -6.4988  -6.4223  -6.3082
    -6.0628  -5.9661  -5.9098  -5.6740  -5.3020  -5.2029  -5.1255  -5.0181
    -4.9476  -4.9101  -4.1919  -4.1569  -4.0073  -3.8575  -3.8044  -3.7676
    -2.4934  -2.3715  -2.3228  -2.2759  -1.4770  -1.1191  -0.8658  -0.5223
    -0.3334  -0.2068  -0.1645  -0.0562   0.0434   0.1737   0.3645   0.4092
     0.4969   0.5550   0.6523   0.7253   0.7467   0.8775   0.9490   1.0605
     1.1444   1.2211   1.2793   1.3826   1.5732   1.6510   1.7032   1.7723
     1.8789   1.9819   2.0408   2.1183   2.2658   2.4123   2.5153   2.6043
     2.8008   2.8563   2.9322   3.0308   3.0490   3.1406   3.4287   3.4939
     3.6160   3.6689   3.6745   3.6880   3.7083   3.7951   4.1571   4.2106
     4.3425   4.4143   4.5918   4.6881   4.8877   4.9107   4.9883   5.0293
     5.3276   5.4023   5.4366   5.4835   5.6021   5.6636   5.6862   5.7396
     5.7833   5.8385   5.9782   6.0501   6.0659   6.1283   6.1390   6.2135
     6.3273   6.4308   6.4606   6.5377   6.7791   6.8572   6.9614   7.0114
     7.0309   7.0902   7.1129   7.1669   7.2723   7.3576   7.3998   7.4850
     7.5266   7.5816   7.6205   7.6818   7.7743   7.8226   7.9635   7.9945
     8.0479   8.1071   8.3667   8.4094   8.4833   8.5555   8.5868   8.6697
     8.8213   8.9102   9.0242   9.0464   9.0708   9.1148   9.1364   9.2101
     9.3256   9.3724   9.3784   9.4412   9.4840   9.5466   9.5598   9.6586
     9.6884   9.7995   9.8747   9.9350   9.9940  10.0384  10.1682  10.2144
    10.2959  10.3339  10.4195  10.5274  10.5475  10.5973  10.7544  10.8016
    10.8200  10.8696  10.9795  11.0139  11.0294  11.0945  11.1137  11.1708
    11.2041  11.2463  11.2989  11.3644  11.4340  11.4924  11.5450  11.5901
    11.6223  11.6334  11.6451  11.6688  11.6945  11.7271  11.8369  11.9519
    12.0438  12.0819  12.1066  12.1333  12.1588  12.2059  12.3499  12.3728
    12.4021  12.4172  12.4980  12.5807  12.6866  12.7612  12.7711  12.8636
    12.9711  13.0030  13.0216  13.0545  13.0685  13.1027  13.2249  13.2649
    13.3028  13.3201  13.3645  13.4141  13.4384  13.4742  13.4897  13.5351
    13.5980  13.6737  13.7465  13.8161  13.8740  13.8983  13.9111  13.9519
    13.9746  14.0533  14.1714  14.2892  14.3960  14.4456  14.5006  14.5713
    14.6010  14.6459  14.7386  14.8476  14.8576  14.9253  14.9532  15.0137
    15.0725  15.1033  15.1390  15.1558  15.2348  15.2943  15.4563  15.4983
    15.5071  15.5595  15.5726  15.6166  15.6309  15.7052  15.7175  15.7927
    15.8010  15.8862  15.9605  16.0170  16.0587  16.0971  16.1103  16.1340
    16.1620  16.1740  16.2504  16.3163  16.3421  16.3964  16.5370  16.5810
    16.5851  16.6381  16.6852  16.7327  16.7764  16.8014  16.8307  16.8679
    16.9004  16.9484  17.0700  17.1186  17.1461  17.1718  17.1863  17.2155
    17.2312  17.2799  17.3136  17.3547  17.4375  17.4895  17.5585  17.5694
    17.5971  17.6360  17.7916  17.8451  17.8527  17.8955  17.9360  17.9553
    18.0016  18.0159  18.0188  18.0712  18.1047  18.1437  18.1744  18.2220
    18.3095  18.3232  18.3530  18.3793  18.5039  18.5868  18.7989  18.8375
    18.9115  18.9629  18.9802  18.9862  19.0295  19.0348  19.0814  19.0942
    19.1525  19.2180  19.2592  19.2776  19.3223  19.3261  19.3503  19.4220
    19.4871  19.5719  19.6098  19.6773  19.7630  19.8237  19.8429  19.8784
    19.9663  20.0006  20.0232  20.0471  20.0580  20.1181  20.1481  20.2025
    20.2654  20.3136  20.3316  20.3524  20.4816  20.5244  20.6106  20.6823
    20.6983  20.7119  20.7757  20.7829  20.7985  20.8588  20.8894  20.9345
    20.9544  20.9938  21.0082  21.0624  21.0669  21.1179  21.2038  21.2438
    21.2653  21.2967  21.3934  21.4488  21.5058  21.5370  21.5681  21.6335
    21.6383  21.6802  21.7316  21.7811  21.7895  21.8437  21.8511  21.9094
    21.9206  21.9791  21.9872  22.0392  22.0592  22.1125  22.1746  22.2098
    22.2373  22.2684  22.2979  22.3236  22.3555  22.3718  22.3927  22.4468
    22.5751  22.6141  22.6518  22.6806  22.8001  22.8714  22.8822  22.9168
    22.9353  22.9501  22.9900  23.0090  23.1667  23.2024  23.2172  23.2542
    23.2697  23.2951  23.3182  23.3330  23.3529  23.4166  23.4594  23.4738
    23.5065  23.5246  23.5391  23.5692  23.6094  23.6987  23.7291  23.7759
    23.8713  23.8781  23.9040  23.9353  23.9648  23.9779  24.1247  24.1554
    24.1805  24.1919  24.2133  24.2235  24.2504  24.3021  24.4040  24.4318
    24.4505  24.4648  24.4956  24.5127  24.5363  24.5861  24.5993  24.6395
    24.6968  24.7395  24.7642  24.8048  24.8770  24.9391  24.9679  24.9918
    25.0286  25.0408  25.0492  25.1005  25.1485  25.2094  25.2780  25.3078
    25.3278  25.3703  25.3906  25.4081  25.4361  25.4753  25.4874  25.5455
    25.6342  25.6746  25.6957  25.7339  25.7746  25.8283  25.8765  25.9244
    25.9397  25.9681  25.9935  26.0219  26.0531  26.1117  26.1926  26.2449
    26.2895  26.3640  26.3716  26.3955  26.4341  26.4574  26.5034  26.5666
    26.6056  26.6763  26.7011  26.7202  26.7507  26.7775  26.8065  26.8736
    26.8829  26.9259  26.9382  26.9751  26.9919  27.0309  27.1080  27.1438
    27.1653  27.2275  27.3175  27.3873  27.4203  27.4550  27.4937  27.5074

     occupation numbers 
     1.0000   1.0000   1.0000   1.0000   1.0000   1.0000   1.0000   1.0000
     1.0000   1.0000   1.0000   1.0000   1.0000   1.0000   1.0000   1.0000
     1.0000   1.0000   1.0000   1.0000   1.0000   1.0000   1.0000   1.0000
     1.0000   1.0000   1.0000   1.0000   1.0000   1.0000   1.0000   1.0000
     1.0000   1.0000   1.0000   1.0000   1.0000   1.0000   1.0000   1.0000
     1.0000   1.0000   1.0000   1.0000   1.0000   1.0000   1.0000   1.0000
     1.0000   1.0000   1.0000   1.0000   1.0000   1.0000   1.0000   1.0000
     1.0000   1.0000   1.0000   1.0000   1.0000   1.0000   1.0000   1.0000
     1.0000   1.0000   1.0000   1.0000   0.0000   0.0000   0.0000   0.0000
     0.0000   0.0000   0.0000   0.0000   0.0000   0.0000   0.0000   0.0000
     0.0000   0.0000   0.0000   0.0000   0.0000   0.0000   0.0000   0.0000
     0.0000   0.0000   0.0000   0.0000   0.0000   0.0000   0.0000   0.0000
     0.0000   0.0000   0.0000   0.0000   0.0000   0.0000   0.0000   0.0000
     0.0000   0.0000   0.0000   0.0000   0.0000   0.0000   0.0000   0.0000
     0.0000   0.0000   0.0000   0.0000   0.0000   0.0000   0.0000   0.0000
     0.0000   0.0000   0.0000   0.0000   0.0000   0.0000   0.0000   0.0000
     0.0000   0.0000   0.0000   0.0000   0.0000   0.0000   0.0000   0.0000
     0.0000   0.0000   0.0000   0.0000   0.0000   0.0000   0.0000   0.0000
     0.0000   0.0000   0.0000   0.0000   0.0000   0.0000   0.0000   0.0000
     0.0000   0.0000   0.0000   0.0000   0.0000   0.0000   0.0000   0.0000
     0.0000   0.0000   0.0000   0.0000   0.0000   0.0000   0.0000   0.0000
     0.0000   0.0000   0.0000   0.0000   0.0000   0.0000   0.0000   0.0000
     0.0000   0.0000   0.0000   0.0000   0.0000   0.0000   0.0000   0.0000
     0.0000   0.0000   0.0000   0.0000   0.0000   0.0000   0.0000   0.0000
     0.0000   0.0000   0.0000   0.0000   0.0000   0.0000   0.0000   0.0000
     0.0000   0.0000   0.0000   0.0000   0.0000   0.0000   0.0000   0.0000
     0.0000   0.0000   0.0000   0.0000   0.0000   0.0000   0.0000   0.0000
     0.0000   0.0000   0.0000   0.0000   0.0000   0.0000   0.0000   0.0000
     0.0000   0.0000   0.0000   0.0000   0.0000   0.0000   0.0000   0.0000
     0.0000   0.0000   0.0000   0.0000   0.0000   0.0000   0.0000   0.0000
     0.0000   0.0000   0.0000   0.0000   0.0000   0.0000   0.0000   0.0000
     0.0000   0.0000   0.0000   0.0000   0.0000   0.0000   0.0000   0.0000
     0.0000   0.0000   0.0000   0.0000   0.0000   0.0000   0.0000   0.0000
     0.0000   0.0000   0.0000   0.0000   0.0000   0.0000   0.0000   0.0000
     0.0000   0.0000   0.0000   0.0000   0.0000   0.0000   0.0000   0.0000
     0.0000   0.0000   0.0000   0.0000   0.0000   0.0000   0.0000   0.0000
     0.0000   0.0000   0.0000   0.0000   0.0000   0.0000   0.0000   0.0000
     0.0000   0.0000   0.0000   0.0000   0.0000   0.0000   0.0000   0.0000
     0.0000   0.0000   0.0000   0.0000   0.0000   0.0000   0.0000   0.0000
     0.0000   0.0000   0.0000   0.0000   0.0000   0.0000   0.0000   0.0000
     0.0000   0.0000   0.0000   0.0000   0.0000   0.0000   0.0000   0.0000
     0.0000   0.0000   0.0000   0.0000   0.0000   0.0000   0.0000   0.0000
     0.0000   0.0000   0.0000   0.0000   0.0000   0.0000   0.0000   0.0000
     0.0000   0.0000   0.0000   0.0000   0.0000   0.0000   0.0000   0.0000
     0.0000   0.0000   0.0000   0.0000   0.0000   0.0000   0.0000   0.0000
     0.0000   0.0000   0.0000   0.0000   0.0000   0.0000   0.0000   0.0000
     0.0000   0.0000   0.0000   0.0000   0.0000   0.0000   0.0000   0.0000
     0.0000   0.0000   0.0000   0.0000   0.0000   0.0000   0.0000   0.0000
     0.0000   0.0000   0.0000   0.0000   0.0000   0.0000   0.0000   0.0000
     0.0000   0.0000   0.0000   0.0000   0.0000   0.0000   0.0000   0.0000
     0.0000   0.0000   0.0000   0.0000   0.0000   0.0000   0.0000   0.0000
     0.0000   0.0000   0.0000   0.0000   0.0000   0.0000   0.0000   0.0000
     0.0000   0.0000   0.0000   0.0000   0.0000   0.0000   0.0000   0.0000
     0.0000   0.0000   0.0000   0.0000   0.0000   0.0000   0.0000   0.0000
     0.0000   0.0000   0.0000   0.0000   0.0000   0.0000   0.0000   0.0000
     0.0000   0.0000   0.0000   0.0000   0.0000   0.0000   0.0000   0.0000
     0.0000   0.0000   0.0000   0.0000   0.0000   0.0000   0.0000   0.0000
     0.0000   0.0000   0.0000   0.0000   0.0000   0.0000   0.0000   0.0000
     0.0000   0.0000   0.0000   0.0000   0.0000   0.0000   0.0000   0.0000
     0.0000   0.0000   0.0000   0.0000   0.0000   0.0000   0.0000   0.0000
     0.0000   0.0000   0.0000   0.0000   0.0000   0.0000   0.0000   0.0000
     0.0000   0.0000   0.0000   0.0000   0.0000   0.0000   0.0000   0.0000
     0.0000   0.0000   0.0000   0.0000   0.0000   0.0000   0.0000   0.0000
     0.0000   0.0000   0.0000   0.0000   0.0000   0.0000   0.0000   0.0000
     0.0000   0.0000   0.0000   0.0000   0.0000   0.0000   0.0000   0.0000
     0.0000   0.0000   0.0000   0.0000   0.0000   0.0000   0.0000   0.0000
     0.0000   0.0000   0.0000   0.0000   0.0000   0.0000   0.0000   0.0000
     0.0000   0.0000   0.0000   0.0000   0.0000   0.0000   0.0000   0.0000
     0.0000   0.0000   0.0000   0.0000   0.0000   0.0000   0.0000   0.0000
     0.0000   0.0000   0.0000   0.0000   0.0000   0.0000   0.0000   0.0000
     0.0000   0.0000   0.0000   0.0000   0.0000   0.0000   0.0000   0.0000
     0.0000   0.0000   0.0000   0.0000   0.0000   0.0000   0.0000   0.0000
     0.0000   0.0000   0.0000   0.0000   0.0000   0.0000   0.0000   0.0000
     0.0000   0.0000   0.0000   0.0000   0.0000   0.0000   0.0000   0.0000
     0.0000   0.0000   0.0000   0.0000   0.0000   0.0000   0.0000   0.0000

          k = 0.1667-0.4811 0.0000 ( 59462 PWs)   bands (ev):

   -73.4619 -73.4615 -71.3727 -71.3723 -47.5877 -47.5864 -47.2962 -47.2957
   -46.9687 -46.9672 -45.3654 -45.3638 -45.0703 -45.0698 -44.8930 -44.8912
   -18.1284 -18.0944 -17.8464 -17.8082 -17.7735 -17.7070 -17.6690 -17.6350
   -17.6028 -17.5935 -17.4736 -17.3874 -11.6752 -11.5857 -11.4095 -11.2395
   -10.1114  -9.9816  -9.7449  -9.6102  -9.3861  -9.3595  -9.0928  -9.0146
    -8.8301  -8.7454  -8.4570  -8.3300  -8.2766  -8.1923  -8.0287  -7.8851
    -7.7893  -7.5919  -7.5056  -7.3911  -7.3262  -7.2497  -7.1548  -7.0409
    -6.9027  -6.8639  -6.7806  -6.6897  -6.6126  -6.4975  -6.4236  -6.3086
    -6.0624  -5.9658  -5.9093  -5.6744  -5.3032  -5.2020  -5.1252  -5.0181
    -4.9475  -4.9104  -4.1918  -4.1573  -4.0071  -3.8574  -3.8044  -3.7677
    -2.4936  -2.3707  -2.3233  -2.2759  -1.4765  -1.1185  -0.8669  -0.5237
    -0.3327  -0.2060  -0.1642  -0.0564   0.0426   0.1736   0.3658   0.4073
     0.4977   0.5537   0.6525   0.7266   0.7464   0.8794   0.9534   1.0640
     1.1403   1.2179   1.2755   1.3783   1.5744   1.6521   1.7038   1.7742
     1.8778   1.9867   2.0406   2.1230   2.2620   2.4092   2.5154   2.6047
     2.8044   2.8598   2.9314   3.0281   3.0441   3.1341   3.4310   3.4953
     3.6149   3.6659   3.6763   3.6912   3.7082   3.7993   4.1545   4.2082
     4.3422   4.4144   4.5941   4.6889   4.8908   4.9099   4.9919   5.0289
     5.3259   5.4005   5.4355   5.4829   5.6026   5.6653   5.6902   5.7415
     5.7803   5.8348   5.9760   6.0485   6.0660   6.1268   6.1395   6.2110
     6.3324   6.4349   6.4614   6.5397   6.7692   6.8485   6.9577   7.0113
     7.0342   7.0946   7.1182   7.1733   7.2728   7.3577   7.4022   7.4872
     7.5246   7.5797   7.6208   7.6827   7.7701   7.8186   7.9675   7.9911
     8.0520   8.1023   8.3619   8.4055   8.4883   8.5596   8.5890   8.6687
     8.8202   8.9087   9.0247   9.0473   9.0721   9.1148   9.1363   9.2103
     9.3291   9.3734   9.3804   9.4423   9.4861   9.5463   9.5584   9.6578
     9.6861   9.7972   9.8706   9.9313   9.9935  10.0371  10.1726  10.2189
    10.2949  10.3327  10.4190  10.5267  10.5459  10.5963  10.7536  10.8047
    10.8183  10.8726  10.9827  11.0176  11.0334  11.0970  11.1095  11.1739
    11.2015  11.2507  11.2941  11.3596  11.4325  11.4906  11.5482  11.5906
    11.6227  11.6358  11.6471  11.6697  11.6954  11.7313  11.8324  11.9478
    12.0368  12.0826  12.1010  12.1342  12.1595  12.2050  12.3513  12.3716
    12.4033  12.4163  12.4972  12.5798  12.6870  12.7620  12.7702  12.8632
    12.9693  13.0035  13.0199  13.0510  13.0687  13.0968  13.2270  13.2682
    13.3057  13.3234  13.3665  13.4166  13.4370  13.4764  13.4872  13.5392
    13.6024  13.6768  13.7497  13.8188  13.8732  13.8975  13.9106  13.9506
    13.9711  14.0493  14.1723  14.2905  14.3975  14.4473  14.4982  14.5697
    14.6002  14.6460  14.7394  14.8473  14.8537  14.9234  14.9554  15.0180
    15.0727  15.1033  15.1389  15.1551  15.2345  15.2941  15.4557  15.4975
    15.5066  15.5586  15.5720  15.6177  15.6292  15.7082  15.7157  15.7900
    15.8018  15.8894  15.9571  16.0138  16.0595  16.0967  16.1099  16.1321
    16.1614  16.1720  16.2538  16.3201  16.3431  16.3979  16.5344  16.5790
    16.5842  16.6361  16.6849  16.7321  16.7776  16.8012  16.8324  16.8687
    16.8991  16.9457  17.0721  17.1194  17.1509  17.1716  17.1895  17.2164
    17.2320  17.2834  17.3122  17.3531  17.4345  17.4860  17.5566  17.5740
    17.5958  17.6389  17.7897  17.8442  17.8520  17.8952  17.9391  17.9560
    18.0043  18.0169  18.0191  18.0724  18.1019  18.1406  18.1702  18.2174
    18.3125  18.3238  18.3556  18.3797  18.5035  18.5863  18.7996  18.8379
    18.9101  18.9614  18.9795  18.9863  19.0322  19.0388  19.0781  19.1006
    19.1576  19.2220  19.2595  19.2773  19.3230  19.3255  19.3470  19.4192
    19.4844  19.5691  19.6106  19.6792  19.7624  19.8232  19.8415  19.8789
    19.9636  19.9997  20.0208  20.0460  20.0569  20.1163  20.1421  20.1962
    20.2706  20.3121  20.3369  20.3504  20.4850  20.5282  20.6104  20.6826
    20.6983  20.7127  20.7743  20.7821  20.8005  20.8561  20.8886  20.9344
    20.9535  20.9923  21.0063  21.0624  21.0666  21.1188  21.2072  21.2431
    21.2692  21.2957  21.3907  21.4455  21.5037  21.5351  21.5741  21.6348
    21.6436  21.6797  21.7320  21.7850  21.7944  21.8458  21.8574  21.9068
    21.9186  21.9786  21.9831  22.0380  22.0601  22.1137  22.1776  22.2072
    22.2397  22.2663  22.2944  22.3255  22.3545  22.3716  22.3931  22.4493
    22.5743  22.6169  22.6525  22.6833  22.7974  22.8683  22.8805  22.9153
    22.9353  22.9466  22.9908  23.0054  23.1679  23.2007  23.2187  23.2502
    23.2671  23.2927  23.3146  23.3321  23.3529  23.4154  23.4587  23.4732
    23.5081  23.5259  23.5389  23.5715  23.6086  23.6969  23.7312  23.7771
    23.8716  23.8832  23.9063  23.9374  23.9674  23.9825  24.1237  24.1571
    24.1843  24.1929  24.2148  24.2259  24.2515  24.3038  24.4048  24.4283
    24.4505  24.4671  24.4964  24.5083  24.5359  24.5834  24.5990  24.6373
    24.6954  24.7393  24.7636  24.8044  24.8733  24.9349  24.9704  24.9927
    25.0306  25.0402  25.0484  25.1001  25.1475  25.2084  25.2779  25.3098
    25.3279  25.3735  25.3883  25.4080  25.4345  25.4720  25.4852  25.5436
    25.6346  25.6740  25.6961  25.7324  25.7740  25.8281  25.8762  25.9240
    25.9381  25.9684  25.9922  26.0225  26.0525  26.1115  26.1949  26.2467
    26.2908  26.3659  26.3716  26.3981  26.4330  26.4619  26.5012  26.5643
    26.6112  26.6821  26.7072  26.7226  26.7564  26.7794  26.8063  26.8737
    26.8832  26.9265  26.9328  26.9715  26.9868  27.0269  27.1046  27.1421
    27.1606  27.2215  27.3197  27.3895  27.4236  27.4564  27.4960  27.5073

     occupation numbers 
     1.0000   1.0000   1.0000   1.0000   1.0000   1.0000   1.0000   1.0000
     1.0000   1.0000   1.0000   1.0000   1.0000   1.0000   1.0000   1.0000
     1.0000   1.0000   1.0000   1.0000   1.0000   1.0000   1.0000   1.0000
     1.0000   1.0000   1.0000   1.0000   1.0000   1.0000   1.0000   1.0000
     1.0000   1.0000   1.0000   1.0000   1.0000   1.0000   1.0000   1.0000
     1.0000   1.0000   1.0000   1.0000   1.0000   1.0000   1.0000   1.0000
     1.0000   1.0000   1.0000   1.0000   1.0000   1.0000   1.0000   1.0000
     1.0000   1.0000   1.0000   1.0000   1.0000   1.0000   1.0000   1.0000
     1.0000   1.0000   1.0000   1.0000   0.0000   0.0000   0.0000   0.0000
     0.0000   0.0000   0.0000   0.0000   0.0000   0.0000   0.0000   0.0000
     0.0000   0.0000   0.0000   0.0000   0.0000   0.0000   0.0000   0.0000
     0.0000   0.0000   0.0000   0.0000   0.0000   0.0000   0.0000   0.0000
     0.0000   0.0000   0.0000   0.0000   0.0000   0.0000   0.0000   0.0000
     0.0000   0.0000   0.0000   0.0000   0.0000   0.0000   0.0000   0.0000
     0.0000   0.0000   0.0000   0.0000   0.0000   0.0000   0.0000   0.0000
     0.0000   0.0000   0.0000   0.0000   0.0000   0.0000   0.0000   0.0000
     0.0000   0.0000   0.0000   0.0000   0.0000   0.0000   0.0000   0.0000
     0.0000   0.0000   0.0000   0.0000   0.0000   0.0000   0.0000   0.0000
     0.0000   0.0000   0.0000   0.0000   0.0000   0.0000   0.0000   0.0000
     0.0000   0.0000   0.0000   0.0000   0.0000   0.0000   0.0000   0.0000
     0.0000   0.0000   0.0000   0.0000   0.0000   0.0000   0.0000   0.0000
     0.0000   0.0000   0.0000   0.0000   0.0000   0.0000   0.0000   0.0000
     0.0000   0.0000   0.0000   0.0000   0.0000   0.0000   0.0000   0.0000
     0.0000   0.0000   0.0000   0.0000   0.0000   0.0000   0.0000   0.0000
     0.0000   0.0000   0.0000   0.0000   0.0000   0.0000   0.0000   0.0000
     0.0000   0.0000   0.0000   0.0000   0.0000   0.0000   0.0000   0.0000
     0.0000   0.0000   0.0000   0.0000   0.0000   0.0000   0.0000   0.0000
     0.0000   0.0000   0.0000   0.0000   0.0000   0.0000   0.0000   0.0000
     0.0000   0.0000   0.0000   0.0000   0.0000   0.0000   0.0000   0.0000
     0.0000   0.0000   0.0000   0.0000   0.0000   0.0000   0.0000   0.0000
     0.0000   0.0000   0.0000   0.0000   0.0000   0.0000   0.0000   0.0000
     0.0000   0.0000   0.0000   0.0000   0.0000   0.0000   0.0000   0.0000
     0.0000   0.0000   0.0000   0.0000   0.0000   0.0000   0.0000   0.0000
     0.0000   0.0000   0.0000   0.0000   0.0000   0.0000   0.0000   0.0000
     0.0000   0.0000   0.0000   0.0000   0.0000   0.0000   0.0000   0.0000
     0.0000   0.0000   0.0000   0.0000   0.0000   0.0000   0.0000   0.0000
     0.0000   0.0000   0.0000   0.0000   0.0000   0.0000   0.0000   0.0000
     0.0000   0.0000   0.0000   0.0000   0.0000   0.0000   0.0000   0.0000
     0.0000   0.0000   0.0000   0.0000   0.0000   0.0000   0.0000   0.0000
     0.0000   0.0000   0.0000   0.0000   0.0000   0.0000   0.0000   0.0000
     0.0000   0.0000   0.0000   0.0000   0.0000   0.0000   0.0000   0.0000
     0.0000   0.0000   0.0000   0.0000   0.0000   0.0000   0.0000   0.0000
     0.0000   0.0000   0.0000   0.0000   0.0000   0.0000   0.0000   0.0000
     0.0000   0.0000   0.0000   0.0000   0.0000   0.0000   0.0000   0.0000
     0.0000   0.0000   0.0000   0.0000   0.0000   0.0000   0.0000   0.0000
     0.0000   0.0000   0.0000   0.0000   0.0000   0.0000   0.0000   0.0000
     0.0000   0.0000   0.0000   0.0000   0.0000   0.0000   0.0000   0.0000
     0.0000   0.0000   0.0000   0.0000   0.0000   0.0000   0.0000   0.0000
     0.0000   0.0000   0.0000   0.0000   0.0000   0.0000   0.0000   0.0000
     0.0000   0.0000   0.0000   0.0000   0.0000   0.0000   0.0000   0.0000
     0.0000   0.0000   0.0000   0.0000   0.0000   0.0000   0.0000   0.0000
     0.0000   0.0000   0.0000   0.0000   0.0000   0.0000   0.0000   0.0000
     0.0000   0.0000   0.0000   0.0000   0.0000   0.0000   0.0000   0.0000
     0.0000   0.0000   0.0000   0.0000   0.0000   0.0000   0.0000   0.0000
     0.0000   0.0000   0.0000   0.0000   0.0000   0.0000   0.0000   0.0000
     0.0000   0.0000   0.0000   0.0000   0.0000   0.0000   0.0000   0.0000
     0.0000   0.0000   0.0000   0.0000   0.0000   0.0000   0.0000   0.0000
     0.0000   0.0000   0.0000   0.0000   0.0000   0.0000   0.0000   0.0000
     0.0000   0.0000   0.0000   0.0000   0.0000   0.0000   0.0000   0.0000
     0.0000   0.0000   0.0000   0.0000   0.0000   0.0000   0.0000   0.0000
     0.0000   0.0000   0.0000   0.0000   0.0000   0.0000   0.0000   0.0000
     0.0000   0.0000   0.0000   0.0000   0.0000   0.0000   0.0000   0.0000
     0.0000   0.0000   0.0000   0.0000   0.0000   0.0000   0.0000   0.0000
     0.0000   0.0000   0.0000   0.0000   0.0000   0.0000   0.0000   0.0000
     0.0000   0.0000   0.0000   0.0000   0.0000   0.0000   0.0000   0.0000
     0.0000   0.0000   0.0000   0.0000   0.0000   0.0000   0.0000   0.0000
     0.0000   0.0000   0.0000   0.0000   0.0000   0.0000   0.0000   0.0000
     0.0000   0.0000   0.0000   0.0000   0.0000   0.0000   0.0000   0.0000
     0.0000   0.0000   0.0000   0.0000   0.0000   0.0000   0.0000   0.0000
     0.0000   0.0000   0.0000   0.0000   0.0000   0.0000   0.0000   0.0000
     0.0000   0.0000   0.0000   0.0000   0.0000   0.0000   0.0000   0.0000
     0.0000   0.0000   0.0000   0.0000   0.0000   0.0000   0.0000   0.0000
     0.0000   0.0000   0.0000   0.0000   0.0000   0.0000   0.0000   0.0000
     0.0000   0.0000   0.0000   0.0000   0.0000   0.0000   0.0000   0.0000
     0.0000   0.0000   0.0000   0.0000   0.0000   0.0000   0.0000   0.0000

          k = 0.1667-0.2887 0.0000 ( 59517 PWs)   bands (ev):

   -73.4619 -73.4615 -71.3727 -71.3723 -47.5884 -47.5858 -47.2964 -47.2956
   -46.9694 -46.9665 -45.3661 -45.3630 -45.0706 -45.0695 -44.8938 -44.8903
   -18.3116 -18.2861 -17.8354 -17.7626 -17.6752 -17.6675 -17.6233 -17.6131
   -17.5603 -17.5358 -17.3877 -17.3596 -11.6541 -11.6107 -11.3139 -11.2421
   -10.1649 -10.0349  -9.8212  -9.6922  -9.3616  -9.3414  -9.2508  -9.2329
    -8.9566  -8.8838  -8.4760  -8.4010  -8.0262  -7.9334  -7.9051  -7.8225
    -7.6878  -7.6544  -7.5510  -7.5269  -7.4455  -7.3247  -7.2551  -7.1823
    -6.9471  -6.8688  -6.8152  -6.6306  -6.6093  -6.4578  -6.3590  -6.1788
    -6.0452  -6.0251  -5.9750  -5.4673  -5.2552  -5.1467  -5.1193  -5.0623
    -4.9913  -4.9609  -4.1304  -4.0880  -3.9837  -3.8558  -3.8405  -3.8039
    -2.5409  -2.4292  -2.3327  -2.2553  -1.3130  -0.9289  -0.8552  -0.5888
    -0.2797  -0.1455  -0.0009   0.1427   0.2706   0.2917   0.3371   0.4236
     0.5470   0.6485   0.6851   0.8328   1.1012   1.1953   1.2587   1.3594
     1.3632   1.4083   1.4882   1.5352   1.6000   1.6194   1.7805   1.8797
     2.1254   2.1678   2.2140   2.2478   2.3483   2.4192   2.4833   2.6726
     2.7861   2.8586   3.0267   3.0742   3.1122   3.1534   3.3906   3.4421
     3.4626   3.4848   3.5348   3.5730   3.6993   3.7446   3.7865   3.8855
     4.1185   4.1316   4.1731   4.2770   4.5289   4.5922   4.6892   4.8169
     5.0198   5.1106   5.1197   5.2264   5.2490   5.3205   5.4284   5.5114
     5.5587   5.6148   5.8127   5.8401   5.8731   5.8892   6.0196   6.0587
     6.2205   6.2724   6.3383   6.4008   6.4102   6.4740   7.0756   7.1487
     7.1522   7.1997   7.2864   7.3019   7.3101   7.3771   7.4193   7.4909
     7.6734   7.7145   7.7618   7.7844   7.7983   7.8329   8.0109   8.1005
     8.2304   8.3164   8.3947   8.4662   8.6314   8.6998   8.7325   8.8062
     8.8165   8.8512   9.0882   9.1191   9.1240   9.1380   9.2161   9.2929
     9.3293   9.3724   9.5584   9.5861   9.6146   9.6420   9.6777   9.6898
     9.7907   9.8229   9.9137   9.9669   9.9902  10.0215  10.0721  10.1065
    10.1941  10.2493  10.2900  10.3033  10.3354  10.3710  10.3997  10.4751
    10.5895  10.7168  10.7954  10.8658  10.9057  10.9414  11.0293  11.0875
    11.0922  11.1246  11.1420  11.1777  11.1931  11.2088  11.2356  11.2607
    11.4119  11.4469  11.5304  11.6328  11.7928  11.8348  11.8555  11.9277
    11.9381  11.9578  12.0011  12.0390  12.0540  12.0659  12.3125  12.3672
    12.6863  12.7282  12.7363  12.7544  12.7952  12.8071  12.8688  12.9236
    13.0517  13.1012  13.1235  13.1584  13.1940  13.2234  13.2909  13.3545
    13.7781  13.7870  13.8509  13.8583  13.9535  13.9672  14.0133  14.0229
    14.0471  14.0906  14.1156  14.1270  14.1608  14.2144  14.3673  14.4076
    14.4289  14.4615  14.4936  14.5258  14.6005  14.6456  14.6585  14.6843
    14.7058  14.7760  14.8044  14.8383  14.8807  14.9095  14.9402  14.9836
    14.9997  15.0468  15.0525  15.1706  15.2111  15.2423  15.2855  15.3136
    15.3824  15.4214  15.6340  15.6901  15.6995  15.7508  15.7813  15.8175
    15.8432  15.8615  15.9054  15.9768  16.0509  16.0948  16.1232  16.1509
    16.2002  16.2451  16.2940  16.3099  16.3432  16.3733  16.4354  16.4691
    16.4884  16.5051  16.6181  16.6849  16.8382  16.8809  16.9072  16.9388
    16.9734  16.9893  17.0721  17.0751  17.1881  17.2070  17.2535  17.2680
    17.3241  17.3634  17.4512  17.4800  17.5033  17.5267  17.5913  17.6378
    17.6502  17.7323  17.7489  17.7690  17.8951  17.9514  18.1420  18.1749
    18.1925  18.2231  18.3197  18.3531  18.3843  18.4004  18.4864  18.5207
    18.5241  18.5445  18.5515  18.5599  18.6037  18.6119  18.6810  18.6875
    18.7369  18.7422  18.7738  18.8242  18.8873  18.9401  19.0525  19.0828
    19.1319  19.1559  19.1611  19.2131  19.2305  19.2664  19.3433  19.3781
    19.4541  19.4776  19.5092  19.5128  19.5855  19.6610  19.9226  19.9977
    20.0718  20.0849  20.1195  20.1238  20.1611  20.1906  20.2081  20.2489
    20.3684  20.4089  20.4261  20.4586  20.4684  20.4880  20.5115  20.5334
    20.5416  20.5801  20.6059  20.6368  20.6798  20.7339  20.8913  20.9421
    20.9541  20.9898  21.0771  21.1127  21.1441  21.1664  21.1683  21.2199
    21.2259  21.3148  21.3308  21.3756  21.3927  21.4490  21.5280  21.5387
    21.5529  21.5864  21.6135  21.6233  21.6518  21.7141  21.7279  21.7703
    21.8267  21.8454  21.8534  21.8893  21.9165  21.9592  22.0304  22.0904
    22.1354  22.1465  22.1753  22.2109  22.3388  22.3712  22.3975  22.4184
    22.4306  22.4655  22.4862  22.5415  22.5710  22.5818  22.6224  22.6450
    22.6912  22.7167  22.8109  22.8415  22.8991  22.9076  22.9681  22.9749
    23.0343  23.0931  23.1231  23.1640  23.1990  23.2078  23.2486  23.2959
    23.4317  23.4713  23.4890  23.5402  23.6828  23.6903  23.7404  23.7718
    23.8634  23.8742  23.9246  23.9391  23.9478  23.9784  24.0134  24.0642
    24.0823  24.0887  24.1276  24.1624  24.1746  24.1922  24.2325  24.2578
    24.2842  24.3295  24.3637  24.4001  24.6109  24.6973  24.7143  24.7562
    24.7612  24.8039  24.8270  24.8568  24.8871  24.9153  24.9245  24.9469
    24.9762  24.9984  25.1133  25.1479  25.1848  25.2470  25.3243  25.3943
    25.3980  25.4213  25.4731  25.4779  25.5025  25.5208  25.5296  25.6130
    25.6706  25.7326  25.7444  25.7923  25.8076  25.8371  25.8638  25.8903
    25.9215  25.9661  26.0108  26.0528  26.0637  26.1104  26.1491  26.1754
    26.1839  26.2318  26.2907  26.3360  26.4029  26.4403  26.4742  26.5082
    26.5210  26.5752  26.5830  26.6201  26.8001  26.8275  26.8474  26.8534
    26.8876  26.8905  26.9607  27.0132  27.0397  27.0650  27.1182  27.1379
    27.1525  27.2157  27.2392  27.2886  27.2970  27.3197  27.3493  27.3634

     occupation numbers 
     1.0000   1.0000   1.0000   1.0000   1.0000   1.0000   1.0000   1.0000
     1.0000   1.0000   1.0000   1.0000   1.0000   1.0000   1.0000   1.0000
     1.0000   1.0000   1.0000   1.0000   1.0000   1.0000   1.0000   1.0000
     1.0000   1.0000   1.0000   1.0000   1.0000   1.0000   1.0000   1.0000
     1.0000   1.0000   1.0000   1.0000   1.0000   1.0000   1.0000   1.0000
     1.0000   1.0000   1.0000   1.0000   1.0000   1.0000   1.0000   1.0000
     1.0000   1.0000   1.0000   1.0000   1.0000   1.0000   1.0000   1.0000
     1.0000   1.0000   1.0000   1.0000   1.0000   1.0000   1.0000   1.0000
     1.0000   1.0000   1.0000   1.0000   0.0000   0.0000   0.0000   0.0000
     0.0000   0.0000   0.0000   0.0000   0.0000   0.0000   0.0000   0.0000
     0.0000   0.0000   0.0000   0.0000   0.0000   0.0000   0.0000   0.0000
     0.0000   0.0000   0.0000   0.0000   0.0000   0.0000   0.0000   0.0000
     0.0000   0.0000   0.0000   0.0000   0.0000   0.0000   0.0000   0.0000
     0.0000   0.0000   0.0000   0.0000   0.0000   0.0000   0.0000   0.0000
     0.0000   0.0000   0.0000   0.0000   0.0000   0.0000   0.0000   0.0000
     0.0000   0.0000   0.0000   0.0000   0.0000   0.0000   0.0000   0.0000
     0.0000   0.0000   0.0000   0.0000   0.0000   0.0000   0.0000   0.0000
     0.0000   0.0000   0.0000   0.0000   0.0000   0.0000   0.0000   0.0000
     0.0000   0.0000   0.0000   0.0000   0.0000   0.0000   0.0000   0.0000
     0.0000   0.0000   0.0000   0.0000   0.0000   0.0000   0.0000   0.0000
     0.0000   0.0000   0.0000   0.0000   0.0000   0.0000   0.0000   0.0000
     0.0000   0.0000   0.0000   0.0000   0.0000   0.0000   0.0000   0.0000
     0.0000   0.0000   0.0000   0.0000   0.0000   0.0000   0.0000   0.0000
     0.0000   0.0000   0.0000   0.0000   0.0000   0.0000   0.0000   0.0000
     0.0000   0.0000   0.0000   0.0000   0.0000   0.0000   0.0000   0.0000
     0.0000   0.0000   0.0000   0.0000   0.0000   0.0000   0.0000   0.0000
     0.0000   0.0000   0.0000   0.0000   0.0000   0.0000   0.0000   0.0000
     0.0000   0.0000   0.0000   0.0000   0.0000   0.0000   0.0000   0.0000
     0.0000   0.0000   0.0000   0.0000   0.0000   0.0000   0.0000   0.0000
     0.0000   0.0000   0.0000   0.0000   0.0000   0.0000   0.0000   0.0000
     0.0000   0.0000   0.0000   0.0000   0.0000   0.0000   0.0000   0.0000
     0.0000   0.0000   0.0000   0.0000   0.0000   0.0000   0.0000   0.0000
     0.0000   0.0000   0.0000   0.0000   0.0000   0.0000   0.0000   0.0000
     0.0000   0.0000   0.0000   0.0000   0.0000   0.0000   0.0000   0.0000
     0.0000   0.0000   0.0000   0.0000   0.0000   0.0000   0.0000   0.0000
     0.0000   0.0000   0.0000   0.0000   0.0000   0.0000   0.0000   0.0000
     0.0000   0.0000   0.0000   0.0000   0.0000   0.0000   0.0000   0.0000
     0.0000   0.0000   0.0000   0.0000   0.0000   0.0000   0.0000   0.0000
     0.0000   0.0000   0.0000   0.0000   0.0000   0.0000   0.0000   0.0000
     0.0000   0.0000   0.0000   0.0000   0.0000   0.0000   0.0000   0.0000
     0.0000   0.0000   0.0000   0.0000   0.0000   0.0000   0.0000   0.0000
     0.0000   0.0000   0.0000   0.0000   0.0000   0.0000   0.0000   0.0000
     0.0000   0.0000   0.0000   0.0000   0.0000   0.0000   0.0000   0.0000
     0.0000   0.0000   0.0000   0.0000   0.0000   0.0000   0.0000   0.0000
     0.0000   0.0000   0.0000   0.0000   0.0000   0.0000   0.0000   0.0000
     0.0000   0.0000   0.0000   0.0000   0.0000   0.0000   0.0000   0.0000
     0.0000   0.0000   0.0000   0.0000   0.0000   0.0000   0.0000   0.0000
     0.0000   0.0000   0.0000   0.0000   0.0000   0.0000   0.0000   0.0000
     0.0000   0.0000   0.0000   0.0000   0.0000   0.0000   0.0000   0.0000
     0.0000   0.0000   0.0000   0.0000   0.0000   0.0000   0.0000   0.0000
     0.0000   0.0000   0.0000   0.0000   0.0000   0.0000   0.0000   0.0000
     0.0000   0.0000   0.0000   0.0000   0.0000   0.0000   0.0000   0.0000
     0.0000   0.0000   0.0000   0.0000   0.0000   0.0000   0.0000   0.0000
     0.0000   0.0000   0.0000   0.0000   0.0000   0.0000   0.0000   0.0000
     0.0000   0.0000   0.0000   0.0000   0.0000   0.0000   0.0000   0.0000
     0.0000   0.0000   0.0000   0.0000   0.0000   0.0000   0.0000   0.0000
     0.0000   0.0000   0.0000   0.0000   0.0000   0.0000   0.0000   0.0000
     0.0000   0.0000   0.0000   0.0000   0.0000   0.0000   0.0000   0.0000
     0.0000   0.0000   0.0000   0.0000   0.0000   0.0000   0.0000   0.0000
     0.0000   0.0000   0.0000   0.0000   0.0000   0.0000   0.0000   0.0000
     0.0000   0.0000   0.0000   0.0000   0.0000   0.0000   0.0000   0.0000
     0.0000   0.0000   0.0000   0.0000   0.0000   0.0000   0.0000   0.0000
     0.0000   0.0000   0.0000   0.0000   0.0000   0.0000   0.0000   0.0000
     0.0000   0.0000   0.0000   0.0000   0.0000   0.0000   0.0000   0.0000
     0.0000   0.0000   0.0000   0.0000   0.0000   0.0000   0.0000   0.0000
     0.0000   0.0000   0.0000   0.0000   0.0000   0.0000   0.0000   0.0000
     0.0000   0.0000   0.0000   0.0000   0.0000   0.0000   0.0000   0.0000
     0.0000   0.0000   0.0000   0.0000   0.0000   0.0000   0.0000   0.0000
     0.0000   0.0000   0.0000   0.0000   0.0000   0.0000   0.0000   0.0000
     0.0000   0.0000   0.0000   0.0000   0.0000   0.0000   0.0000   0.0000
     0.0000   0.0000   0.0000   0.0000   0.0000   0.0000   0.0000   0.0000
     0.0000   0.0000   0.0000   0.0000   0.0000   0.0000   0.0000   0.0000
     0.0000   0.0000   0.0000   0.0000   0.0000   0.0000   0.0000   0.0000
     0.0000   0.0000   0.0000   0.0000   0.0000   0.0000   0.0000   0.0000
     0.0000   0.0000   0.0000   0.0000   0.0000   0.0000   0.0000   0.0000

          k = 0.1667-0.0962 0.0000 ( 59490 PWs)   bands (ev):

   -73.4619 -73.4615 -71.3728 -71.3723 -47.5888 -47.5853 -47.2965 -47.2955
   -46.9699 -46.9660 -45.3666 -45.3625 -45.0707 -45.0694 -44.8944 -44.8898
   -18.4221 -18.3980 -17.8729 -17.8423 -17.6256 -17.6114 -17.5719 -17.5259
   -17.4998 -17.4585 -17.3481 -17.3434 -11.6174 -11.5928 -11.2835 -11.2540
   -10.1933 -10.0492  -9.8523  -9.7164  -9.3249  -9.2987  -9.2474  -9.2154
    -9.0342  -8.9042  -8.7179  -8.6426  -8.2473  -8.1781  -7.9754  -7.8722
    -7.8366  -7.7426  -7.6322  -7.5622  -7.4703  -7.4178  -7.1875  -7.1466
    -6.9096  -6.7648  -6.6858  -6.4735  -6.3610  -6.3493  -6.2286  -6.1835
    -6.0965  -5.7783  -5.6498  -5.5794  -5.1453  -5.1283  -5.0885  -5.0638
    -5.0126  -4.9385  -4.0937  -4.0513  -3.9793  -3.9111  -3.8584  -3.8094
    -2.4932  -2.4365  -2.3302  -2.2760  -1.3159  -1.1056  -0.9276  -0.9063
    -0.0457   0.0230   0.0876   0.1525   0.1709   0.1931   0.2080   0.3319
     0.4674   0.5575   0.6110   0.7218   0.9677   1.1125   1.1366   1.2382
     1.7780   1.8353   1.8913   2.0172   2.1979   2.2398   2.2853   2.3380
     2.4007   2.4206   2.4863   2.5704   2.5896   2.6515   2.6940   2.7682
     2.7867   2.8467   2.9411   3.0238   3.0427   3.1408   3.2726   3.3243
     3.3409   3.4061   3.7238   3.7515   3.7973   3.8333   3.8857   3.8954
     4.1477   4.2090   4.2495   4.3210   4.3492   4.3845   4.6983   4.7591
     4.7774   4.8379   4.8641   4.9125   5.1301   5.2623   5.2747   5.3550
     5.4163   5.4948   5.5202   5.5847   5.6195   5.6424   5.7093   5.7308
     5.9518   6.0550   6.3710   6.4310   6.4655   6.5400   6.5661   6.6451
     6.6543   6.7655   6.8287   6.8488   6.8929   6.9369   7.1246   7.1699
     7.3598   7.3898   7.4340   7.4798   7.7263   7.8049   7.8309   7.8352
     7.9195   7.9339   8.1602   8.2628   8.3185   8.3838   8.4120   8.5059
     8.6292   8.7253   8.8575   8.9172   8.9441   8.9820   9.0209   9.0374
     9.0568   9.0628   9.2318   9.2735   9.3472   9.3914   9.4809   9.5212
     9.8350   9.8926   9.9104   9.9621   9.9793  10.0399  10.2032  10.2645
    10.3932  10.4199  10.4838  10.5041  10.6170  10.6367  10.6812  10.6927
    10.8840  10.9563  10.9846  11.0245  11.2719  11.3379  11.4101  11.4364
    11.4833  11.5025  11.6558  11.7493  11.7780  11.8003  11.8273  11.8951
    11.9703  12.0352  12.1088  12.1384  12.1639  12.2228  12.2544  12.2673
    12.3110  12.3385  12.5196  12.5869  12.5922  12.6200  12.6487  12.7166
    12.8769  12.9178  12.9229  12.9767  12.9828  13.0039  13.0157  13.0371
    13.0730  13.1149  13.1473  13.1911  13.2752  13.2926  13.3321  13.3706
    13.4621  13.5183  13.5388  13.5627  13.7436  13.7842  13.8445  13.9037
    13.9841  14.0536  14.0721  14.1023  14.1222  14.1662  14.2622  14.2975
    14.3549  14.3677  14.3736  14.4517  14.4742  14.5176  14.5233  14.5617
    14.6717  14.7353  14.8573  14.8938  14.9130  14.9370  14.9555  14.9728
    15.0574  15.0991  15.2215  15.2409  15.2736  15.2999  15.3435  15.3634
    15.4189  15.4213  15.5843  15.6362  15.6439  15.6851  15.7005  15.7627
    15.8176  15.8878  15.8933  15.9111  15.9203  15.9335  15.9820  15.9897
    16.1677  16.2304  16.2940  16.3592  16.3826  16.4446  16.4707  16.4984
    16.5355  16.5475  16.6718  16.7231  16.7734  16.8113  16.8472  16.8797
    16.9435  16.9722  17.0032  17.0464  17.0666  17.0821  17.1044  17.1369
    17.2447  17.2982  17.3252  17.3729  17.4824  17.5400  17.6888  17.7517
    17.7599  17.8040  17.8484  17.8766  17.9234  17.9879  18.1172  18.1623
    18.1871  18.2074  18.3846  18.4750  18.4862  18.5096  18.5530  18.5634
    18.5749  18.6356  18.6557  18.6982  18.7352  18.7829  18.9606  18.9777
    19.0275  19.0588  19.0662  19.0912  19.1292  19.1503  19.2193  19.2559
    19.2718  19.2827  19.3182  19.3243  19.3455  19.3933  19.4707  19.5296
    19.6047  19.6223  19.6406  19.6666  19.6873  19.6980  19.7689  19.8374
    19.8773  19.9368  19.9704  20.0143  20.0266  20.0994  20.1179  20.1187
    20.1207  20.1549  20.2045  20.2145  20.3030  20.3525  20.4411  20.4837
    20.5031  20.5306  20.6014  20.6619  20.6758  20.7156  20.7426  20.8111
    20.8136  20.8696  20.8846  20.9635  20.9914  21.0116  21.0400  21.0622
    21.1013  21.1156  21.1601  21.1682  21.2128  21.2443  21.2764  21.3430
    21.3641  21.4125  21.4380  21.4760  21.5004  21.5807  21.6156  21.6645
    21.6814  21.6880  21.6952  21.7255  21.8966  21.9411  21.9998  22.0770
    22.0946  22.1287  22.1545  22.2420  22.2612  22.2705  22.3143  22.3397
    22.3807  22.3878  22.4190  22.4533  22.5687  22.6474  22.6610  22.6835
    22.7311  22.7397  22.8368  22.8756  22.8943  22.9883  23.0311  23.1032
    23.1158  23.1749  23.2059  23.2988  23.3646  23.4168  23.4617  23.5219
    23.5356  23.5413  23.5799  23.5823  23.5886  23.6220  23.6560  23.6902
    23.7155  23.7632  23.7945  23.8477  23.8648  23.9208  23.9672  24.0291
    24.0900  24.1170  24.1485  24.1800  24.1988  24.2358  24.2425  24.2901
    24.3286  24.4032  24.4241  24.4491  24.4785  24.4922  24.5161  24.5396
    24.6180  24.6431  24.6877  24.7257  24.7731  24.8100  24.8481  24.8928
    24.9001  24.9533  24.9902  25.0423  25.0685  25.1253  25.1446  25.2057
    25.2317  25.2836  25.3027  25.3548  25.4146  25.4817  25.5030  25.5526
    25.5672  25.5890  25.6265  25.6416  25.6711  25.6876  25.7078  25.7648
    25.8312  25.8848  25.9419  25.9949  26.0042  26.0714  26.1032  26.1126
    26.1579  26.1626  26.2723  26.3161  26.3509  26.3582  26.3838  26.4466
    26.5869  26.6416  26.6489  26.7094  26.7316  26.7328  26.7797  26.8057
    26.8574  26.8843  26.9048  26.9262  26.9346  27.0053  27.0758  27.1269
    27.1426  27.1775  27.2005  27.2489  27.2566  27.3116  27.3343  27.3779

     occupation numbers 
     1.0000   1.0000   1.0000   1.0000   1.0000   1.0000   1.0000   1.0000
     1.0000   1.0000   1.0000   1.0000   1.0000   1.0000   1.0000   1.0000
     1.0000   1.0000   1.0000   1.0000   1.0000   1.0000   1.0000   1.0000
     1.0000   1.0000   1.0000   1.0000   1.0000   1.0000   1.0000   1.0000
     1.0000   1.0000   1.0000   1.0000   1.0000   1.0000   1.0000   1.0000
     1.0000   1.0000   1.0000   1.0000   1.0000   1.0000   1.0000   1.0000
     1.0000   1.0000   1.0000   1.0000   1.0000   1.0000   1.0000   1.0000
     1.0000   1.0000   1.0000   1.0000   1.0000   1.0000   1.0000   1.0000
     1.0000   1.0000   1.0000   1.0000   0.0000   0.0000   0.0000   0.0000
     0.0000   0.0000   0.0000   0.0000   0.0000   0.0000   0.0000   0.0000
     0.0000   0.0000   0.0000   0.0000   0.0000   0.0000   0.0000   0.0000
     0.0000   0.0000   0.0000   0.0000   0.0000   0.0000   0.0000   0.0000
     0.0000   0.0000   0.0000   0.0000   0.0000   0.0000   0.0000   0.0000
     0.0000   0.0000   0.0000   0.0000   0.0000   0.0000   0.0000   0.0000
     0.0000   0.0000   0.0000   0.0000   0.0000   0.0000   0.0000   0.0000
     0.0000   0.0000   0.0000   0.0000   0.0000   0.0000   0.0000   0.0000
     0.0000   0.0000   0.0000   0.0000   0.0000   0.0000   0.0000   0.0000
     0.0000   0.0000   0.0000   0.0000   0.0000   0.0000   0.0000   0.0000
     0.0000   0.0000   0.0000   0.0000   0.0000   0.0000   0.0000   0.0000
     0.0000   0.0000   0.0000   0.0000   0.0000   0.0000   0.0000   0.0000
     0.0000   0.0000   0.0000   0.0000   0.0000   0.0000   0.0000   0.0000
     0.0000   0.0000   0.0000   0.0000   0.0000   0.0000   0.0000   0.0000
     0.0000   0.0000   0.0000   0.0000   0.0000   0.0000   0.0000   0.0000
     0.0000   0.0000   0.0000   0.0000   0.0000   0.0000   0.0000   0.0000
     0.0000   0.0000   0.0000   0.0000   0.0000   0.0000   0.0000   0.0000
     0.0000   0.0000   0.0000   0.0000   0.0000   0.0000   0.0000   0.0000
     0.0000   0.0000   0.0000   0.0000   0.0000   0.0000   0.0000   0.0000
     0.0000   0.0000   0.0000   0.0000   0.0000   0.0000   0.0000   0.0000
     0.0000   0.0000   0.0000   0.0000   0.0000   0.0000   0.0000   0.0000
     0.0000   0.0000   0.0000   0.0000   0.0000   0.0000   0.0000   0.0000
     0.0000   0.0000   0.0000   0.0000   0.0000   0.0000   0.0000   0.0000
     0.0000   0.0000   0.0000   0.0000   0.0000   0.0000   0.0000   0.0000
     0.0000   0.0000   0.0000   0.0000   0.0000   0.0000   0.0000   0.0000
     0.0000   0.0000   0.0000   0.0000   0.0000   0.0000   0.0000   0.0000
     0.0000   0.0000   0.0000   0.0000   0.0000   0.0000   0.0000   0.0000
     0.0000   0.0000   0.0000   0.0000   0.0000   0.0000   0.0000   0.0000
     0.0000   0.0000   0.0000   0.0000   0.0000   0.0000   0.0000   0.0000
     0.0000   0.0000   0.0000   0.0000   0.0000   0.0000   0.0000   0.0000
     0.0000   0.0000   0.0000   0.0000   0.0000   0.0000   0.0000   0.0000
     0.0000   0.0000   0.0000   0.0000   0.0000   0.0000   0.0000   0.0000
     0.0000   0.0000   0.0000   0.0000   0.0000   0.0000   0.0000   0.0000
     0.0000   0.0000   0.0000   0.0000   0.0000   0.0000   0.0000   0.0000
     0.0000   0.0000   0.0000   0.0000   0.0000   0.0000   0.0000   0.0000
     0.0000   0.0000   0.0000   0.0000   0.0000   0.0000   0.0000   0.0000
     0.0000   0.0000   0.0000   0.0000   0.0000   0.0000   0.0000   0.0000
     0.0000   0.0000   0.0000   0.0000   0.0000   0.0000   0.0000   0.0000
     0.0000   0.0000   0.0000   0.0000   0.0000   0.0000   0.0000   0.0000
     0.0000   0.0000   0.0000   0.0000   0.0000   0.0000   0.0000   0.0000
     0.0000   0.0000   0.0000   0.0000   0.0000   0.0000   0.0000   0.0000
     0.0000   0.0000   0.0000   0.0000   0.0000   0.0000   0.0000   0.0000
     0.0000   0.0000   0.0000   0.0000   0.0000   0.0000   0.0000   0.0000
     0.0000   0.0000   0.0000   0.0000   0.0000   0.0000   0.0000   0.0000
     0.0000   0.0000   0.0000   0.0000   0.0000   0.0000   0.0000   0.0000
     0.0000   0.0000   0.0000   0.0000   0.0000   0.0000   0.0000   0.0000
     0.0000   0.0000   0.0000   0.0000   0.0000   0.0000   0.0000   0.0000
     0.0000   0.0000   0.0000   0.0000   0.0000   0.0000   0.0000   0.0000
     0.0000   0.0000   0.0000   0.0000   0.0000   0.0000   0.0000   0.0000
     0.0000   0.0000   0.0000   0.0000   0.0000   0.0000   0.0000   0.0000
     0.0000   0.0000   0.0000   0.0000   0.0000   0.0000   0.0000   0.0000
     0.0000   0.0000   0.0000   0.0000   0.0000   0.0000   0.0000   0.0000
     0.0000   0.0000   0.0000   0.0000   0.0000   0.0000   0.0000   0.0000
     0.0000   0.0000   0.0000   0.0000   0.0000   0.0000   0.0000   0.0000
     0.0000   0.0000   0.0000   0.0000   0.0000   0.0000   0.0000   0.0000
     0.0000   0.0000   0.0000   0.0000   0.0000   0.0000   0.0000   0.0000
     0.0000   0.0000   0.0000   0.0000   0.0000   0.0000   0.0000   0.0000
     0.0000   0.0000   0.0000   0.0000   0.0000   0.0000   0.0000   0.0000
     0.0000   0.0000   0.0000   0.0000   0.0000   0.0000   0.0000   0.0000
     0.0000   0.0000   0.0000   0.0000   0.0000   0.0000   0.0000   0.0000
     0.0000   0.0000   0.0000   0.0000   0.0000   0.0000   0.0000   0.0000
     0.0000   0.0000   0.0000   0.0000   0.0000   0.0000   0.0000   0.0000
     0.0000   0.0000   0.0000   0.0000   0.0000   0.0000   0.0000   0.0000
     0.0000   0.0000   0.0000   0.0000   0.0000   0.0000   0.0000   0.0000
     0.0000   0.0000   0.0000   0.0000   0.0000   0.0000   0.0000   0.0000
     0.0000   0.0000   0.0000   0.0000   0.0000   0.0000   0.0000   0.0000
     0.0000   0.0000   0.0000   0.0000   0.0000   0.0000   0.0000   0.0000

          k = 0.3333 0.1925 0.0000 ( 59506 PWs)   bands (ev):

   -73.4619 -73.4615 -71.3727 -71.3723 -47.5882 -47.5859 -47.2963 -47.2956
   -46.9692 -46.9667 -45.3659 -45.3633 -45.0705 -45.0696 -44.8936 -44.8906
   -18.2614 -18.2343 -17.8182 -17.7397 -17.7268 -17.6981 -17.6689 -17.6509
   -17.5483 -17.5206 -17.4175 -17.3655 -11.6713 -11.6033 -11.3382 -11.2335
   -10.2033 -10.0797  -9.7575  -9.6293  -9.4736  -9.4278  -9.1171  -9.0817
    -8.8898  -8.8254  -8.4469  -8.3592  -8.1074  -7.9297  -7.8455  -7.7534
    -7.6922  -7.6434  -7.5799  -7.4681  -7.4106  -7.2499  -7.2053  -7.1780
    -7.1118  -6.8814  -6.8644  -6.7451  -6.6586  -6.4667  -6.2934  -6.2068
    -6.0706  -6.0103  -5.8616  -5.7583  -5.2990  -5.1508  -5.0787  -5.0312
    -5.0140  -4.9469  -4.1533  -4.1212  -3.9383  -3.8712  -3.8396  -3.7927
    -2.5346  -2.4492  -2.3037  -2.2832  -1.4292  -1.0468  -0.6475  -0.3856
    -0.1456  -0.0396  -0.0283   0.0908   0.1621   0.1992   0.3534   0.4396
     0.6256   0.6658   0.7801   0.8025   0.8294   0.9430   1.0411   1.1889
     1.2930   1.3935   1.5776   1.6998   1.7112   1.7959   1.8266   1.9239
     2.1083   2.1480   2.2171   2.3017   2.5201   2.5339   2.5942   2.6093
     2.7086   2.7532   2.8131   2.8609   3.0477   3.0519   3.1005   3.1421
     3.1509   3.1788   3.5866   3.6254   3.6885   3.7225   3.7832   3.8147
     3.8528   3.8942   4.0742   4.1702   4.2543   4.3798   4.6207   4.6762
     5.1254   5.2107   5.4365   5.4471   5.5052   5.5622   5.5922   5.6056
     5.6565   5.6939   6.1692   6.1797   6.2217   6.2366   6.2680   6.3191
     6.3211   6.4096   6.4707   6.5720   6.6922   6.7203   6.8058   6.8470
     7.0748   7.1460   7.1709   7.2402   7.7731   7.8227   7.8392   7.8868
     7.9341   7.9396   7.9590   8.0125   8.0669   8.1755   8.2287   8.2510
     8.3348   8.3881   8.4326   8.5038   8.5847   8.6283   8.6425   8.6992
     8.8006   8.8457   8.8608   8.9296   9.0523   9.1057   9.1470   9.1961
     9.2108   9.2727   9.4057   9.4456   9.4797   9.5208   9.5345   9.5660
     9.5925   9.6526   9.6686   9.7437   9.7626   9.8146   9.8850   9.9807
    10.0316  10.1115  10.3170  10.4059  10.4850  10.5739  10.7012  10.7398
    10.7857  10.8254  10.8318  10.8484  10.8830  10.9053  10.9191  10.9594
    10.9972  11.0347  11.0638  11.0798  11.1315  11.2107  11.4195  11.4599
    11.4863  11.5278  11.6243  11.6609  11.7572  11.8276  11.8424  11.8929
    11.9096  11.9775  12.0520  12.0994  12.1907  12.2456  12.3188  12.3906
    12.3961  12.4309  12.4802  12.4974  12.5030  12.5548  12.6853  12.7389
    12.8179  12.8957  13.1068  13.1273  13.1655  13.1939  13.2443  13.3188
    13.3806  13.4102  13.4368  13.4557  13.5481  13.5953  13.6851  13.7409
    13.7503  13.8190  14.0516  14.1006  14.1379  14.2216  14.2556  14.2606
    14.3113  14.3217  14.3364  14.3659  14.5079  14.5575  14.7935  14.8013
    14.8549  14.8928  14.9042  14.9583  14.9695  15.0025  15.0332  15.0617
    15.0741  15.1265  15.1377  15.1852  15.3548  15.4099  15.4298  15.4460
    15.4718  15.4836  15.5559  15.6024  15.6045  15.6440  15.7032  15.7950
    16.0943  16.1043  16.1607  16.2092  16.2265  16.2881  16.2931  16.2980
    16.3297  16.3484  16.4626  16.5066  16.5745  16.5799  16.6938  16.7308
    16.7656  16.8202  16.8970  16.9448  16.9582  16.9865  17.0196  17.0302
    17.0901  17.1196  17.1372  17.1533  17.1655  17.2036  17.2082  17.2565
    17.2760  17.3306  17.5028  17.5365  17.5613  17.6085  17.6234  17.6293
    17.6679  17.6834  17.7505  17.8128  17.9112  17.9587  17.9815  18.0420
    18.0621  18.1056  18.1330  18.1784  18.1806  18.2618  18.3689  18.4384
    18.4507  18.4635  18.5036  18.5619  18.6960  18.7551  18.7772  18.7953
    18.8258  18.8361  18.8591  18.8986  18.9247  18.9400  18.9635  19.0017
    19.0443  19.0652  19.1022  19.1104  19.2433  19.2702  19.3154  19.3456
    19.4419  19.4505  19.4621  19.4904  19.5147  19.5250  19.5547  19.6131
    19.6301  19.6770  19.7392  19.7840  19.8985  19.9604  20.2067  20.2533
    20.2879  20.2994  20.3206  20.3474  20.4019  20.4184  20.4602  20.4768
    20.5063  20.5172  20.5552  20.6054  20.6215  20.6734  20.8782  20.8803
    20.9175  20.9530  20.9803  21.0082  21.0508  21.0688  21.1070  21.1339
    21.1578  21.2016  21.3738  21.4231  21.4360  21.4596  21.4933  21.5241
    21.5937  21.6268  21.6519  21.6986  21.7164  21.7712  21.7974  21.8208
    21.8497  21.8656  22.0112  22.0659  22.1114  22.1449  22.1714  22.2068
    22.2389  22.2505  22.2840  22.3201  22.3288  22.3787  22.5065  22.5438
    22.6665  22.7158  22.7206  22.7586  22.8084  22.8341  22.8710  22.8913
    22.9183  22.9465  22.9538  23.0041  23.0239  23.0864  23.1209  23.1581
    23.1660  23.2247  23.2705  23.3073  23.3345  23.3488  23.4159  23.4976
    23.5623  23.5864  23.6270  23.6329  23.6405  23.6441  23.6795  23.7073
    23.7633  23.8006  23.8042  23.8234  23.8509  23.8522  24.0771  24.1006
    24.1363  24.1722  24.1874  24.2614  24.2813  24.3004  24.3046  24.3708
    24.3919  24.4053  24.4481  24.4641  24.5059  24.5552  24.5689  24.6078
    24.6132  24.6251  24.6596  24.6638  24.7031  24.7712  24.7727  24.8521
    24.8573  24.8987  24.9051  24.9648  24.9803  24.9906  25.0069  25.0473
    25.1631  25.2486  25.2650  25.3184  25.4071  25.4170  25.4664  25.4881
    25.5501  25.5631  25.6010  25.6428  25.7227  25.7545  25.8360  25.8528
    25.8754  25.8839  25.9339  25.9609  26.0300  26.0714  26.1636  26.1785
    26.2157  26.2205  26.2325  26.2899  26.3263  26.3651  26.4040  26.4768
    26.4896  26.5202  26.7087  26.7770  26.8027  26.8427  26.9260  26.9443
    26.9786  27.0207  27.0291  27.0600  27.0779  27.0924  27.2163  27.2354
    27.2698  27.2901  27.3178  27.3234  27.3533  27.3804  27.3989  27.4144

     occupation numbers 
     1.0000   1.0000   1.0000   1.0000   1.0000   1.0000   1.0000   1.0000
     1.0000   1.0000   1.0000   1.0000   1.0000   1.0000   1.0000   1.0000
     1.0000   1.0000   1.0000   1.0000   1.0000   1.0000   1.0000   1.0000
     1.0000   1.0000   1.0000   1.0000   1.0000   1.0000   1.0000   1.0000
     1.0000   1.0000   1.0000   1.0000   1.0000   1.0000   1.0000   1.0000
     1.0000   1.0000   1.0000   1.0000   1.0000   1.0000   1.0000   1.0000
     1.0000   1.0000   1.0000   1.0000   1.0000   1.0000   1.0000   1.0000
     1.0000   1.0000   1.0000   1.0000   1.0000   1.0000   1.0000   1.0000
     1.0000   1.0000   1.0000   1.0000   0.0000   0.0000   0.0000   0.0000
     0.0000   0.0000   0.0000   0.0000   0.0000   0.0000   0.0000   0.0000
     0.0000   0.0000   0.0000   0.0000   0.0000   0.0000   0.0000   0.0000
     0.0000   0.0000   0.0000   0.0000   0.0000   0.0000   0.0000   0.0000
     0.0000   0.0000   0.0000   0.0000   0.0000   0.0000   0.0000   0.0000
     0.0000   0.0000   0.0000   0.0000   0.0000   0.0000   0.0000   0.0000
     0.0000   0.0000   0.0000   0.0000   0.0000   0.0000   0.0000   0.0000
     0.0000   0.0000   0.0000   0.0000   0.0000   0.0000   0.0000   0.0000
     0.0000   0.0000   0.0000   0.0000   0.0000   0.0000   0.0000   0.0000
     0.0000   0.0000   0.0000   0.0000   0.0000   0.0000   0.0000   0.0000
     0.0000   0.0000   0.0000   0.0000   0.0000   0.0000   0.0000   0.0000
     0.0000   0.0000   0.0000   0.0000   0.0000   0.0000   0.0000   0.0000
     0.0000   0.0000   0.0000   0.0000   0.0000   0.0000   0.0000   0.0000
     0.0000   0.0000   0.0000   0.0000   0.0000   0.0000   0.0000   0.0000
     0.0000   0.0000   0.0000   0.0000   0.0000   0.0000   0.0000   0.0000
     0.0000   0.0000   0.0000   0.0000   0.0000   0.0000   0.0000   0.0000
     0.0000   0.0000   0.0000   0.0000   0.0000   0.0000   0.0000   0.0000
     0.0000   0.0000   0.0000   0.0000   0.0000   0.0000   0.0000   0.0000
     0.0000   0.0000   0.0000   0.0000   0.0000   0.0000   0.0000   0.0000
     0.0000   0.0000   0.0000   0.0000   0.0000   0.0000   0.0000   0.0000
     0.0000   0.0000   0.0000   0.0000   0.0000   0.0000   0.0000   0.0000
     0.0000   0.0000   0.0000   0.0000   0.0000   0.0000   0.0000   0.0000
     0.0000   0.0000   0.0000   0.0000   0.0000   0.0000   0.0000   0.0000
     0.0000   0.0000   0.0000   0.0000   0.0000   0.0000   0.0000   0.0000
     0.0000   0.0000   0.0000   0.0000   0.0000   0.0000   0.0000   0.0000
     0.0000   0.0000   0.0000   0.0000   0.0000   0.0000   0.0000   0.0000
     0.0000   0.0000   0.0000   0.0000   0.0000   0.0000   0.0000   0.0000
     0.0000   0.0000   0.0000   0.0000   0.0000   0.0000   0.0000   0.0000
     0.0000   0.0000   0.0000   0.0000   0.0000   0.0000   0.0000   0.0000
     0.0000   0.0000   0.0000   0.0000   0.0000   0.0000   0.0000   0.0000
     0.0000   0.0000   0.0000   0.0000   0.0000   0.0000   0.0000   0.0000
     0.0000   0.0000   0.0000   0.0000   0.0000   0.0000   0.0000   0.0000
     0.0000   0.0000   0.0000   0.0000   0.0000   0.0000   0.0000   0.0000
     0.0000   0.0000   0.0000   0.0000   0.0000   0.0000   0.0000   0.0000
     0.0000   0.0000   0.0000   0.0000   0.0000   0.0000   0.0000   0.0000
     0.0000   0.0000   0.0000   0.0000   0.0000   0.0000   0.0000   0.0000
     0.0000   0.0000   0.0000   0.0000   0.0000   0.0000   0.0000   0.0000
     0.0000   0.0000   0.0000   0.0000   0.0000   0.0000   0.0000   0.0000
     0.0000   0.0000   0.0000   0.0000   0.0000   0.0000   0.0000   0.0000
     0.0000   0.0000   0.0000   0.0000   0.0000   0.0000   0.0000   0.0000
     0.0000   0.0000   0.0000   0.0000   0.0000   0.0000   0.0000   0.0000
     0.0000   0.0000   0.0000   0.0000   0.0000   0.0000   0.0000   0.0000
     0.0000   0.0000   0.0000   0.0000   0.0000   0.0000   0.0000   0.0000
     0.0000   0.0000   0.0000   0.0000   0.0000   0.0000   0.0000   0.0000
     0.0000   0.0000   0.0000   0.0000   0.0000   0.0000   0.0000   0.0000
     0.0000   0.0000   0.0000   0.0000   0.0000   0.0000   0.0000   0.0000
     0.0000   0.0000   0.0000   0.0000   0.0000   0.0000   0.0000   0.0000
     0.0000   0.0000   0.0000   0.0000   0.0000   0.0000   0.0000   0.0000
     0.0000   0.0000   0.0000   0.0000   0.0000   0.0000   0.0000   0.0000
     0.0000   0.0000   0.0000   0.0000   0.0000   0.0000   0.0000   0.0000
     0.0000   0.0000   0.0000   0.0000   0.0000   0.0000   0.0000   0.0000
     0.0000   0.0000   0.0000   0.0000   0.0000   0.0000   0.0000   0.0000
     0.0000   0.0000   0.0000   0.0000   0.0000   0.0000   0.0000   0.0000
     0.0000   0.0000   0.0000   0.0000   0.0000   0.0000   0.0000   0.0000
     0.0000   0.0000   0.0000   0.0000   0.0000   0.0000   0.0000   0.0000
     0.0000   0.0000   0.0000   0.0000   0.0000   0.0000   0.0000   0.0000
     0.0000   0.0000   0.0000   0.0000   0.0000   0.0000   0.0000   0.0000
     0.0000   0.0000   0.0000   0.0000   0.0000   0.0000   0.0000   0.0000
     0.0000   0.0000   0.0000   0.0000   0.0000   0.0000   0.0000   0.0000
     0.0000   0.0000   0.0000   0.0000   0.0000   0.0000   0.0000   0.0000
     0.0000   0.0000   0.0000   0.0000   0.0000   0.0000   0.0000   0.0000
     0.0000   0.0000   0.0000   0.0000   0.0000   0.0000   0.0000   0.0000
     0.0000   0.0000   0.0000   0.0000   0.0000   0.0000   0.0000   0.0000
     0.0000   0.0000   0.0000   0.0000   0.0000   0.0000   0.0000   0.0000
     0.0000   0.0000   0.0000   0.0000   0.0000   0.0000   0.0000   0.0000
     0.0000   0.0000   0.0000   0.0000   0.0000   0.0000   0.0000   0.0000
     0.0000   0.0000   0.0000   0.0000   0.0000   0.0000   0.0000   0.0000

          k = 0.3333 0.3849 0.0000 ( 59462 PWs)   bands (ev):

   -73.4619 -73.4615 -71.3727 -71.3723 -47.5877 -47.5864 -47.2962 -47.2957
   -46.9687 -46.9672 -45.3654 -45.3638 -45.0703 -45.0698 -44.8930 -44.8912
   -18.1284 -18.0944 -17.8462 -17.8081 -17.7734 -17.7073 -17.6689 -17.6351
   -17.6029 -17.5936 -17.4735 -17.3875 -11.6752 -11.5857 -11.4095 -11.2395
   -10.1114  -9.9816  -9.7448  -9.6102  -9.3861  -9.3596  -9.0929  -9.0146
    -8.8300  -8.7455  -8.4570  -8.3299  -8.2766  -8.1922  -8.0287  -7.8852
    -7.7894  -7.5918  -7.5055  -7.3912  -7.3261  -7.2496  -7.1549  -7.0409
    -6.9028  -6.8639  -6.7806  -6.6897  -6.6127  -6.4975  -6.4237  -6.3086
    -6.0624  -5.9658  -5.9093  -5.6744  -5.3032  -5.2020  -5.1252  -5.0181
    -4.9475  -4.9104  -4.1918  -4.1573  -4.0071  -3.8574  -3.8044  -3.7677
    -2.4936  -2.3708  -2.3233  -2.2759  -1.4765  -1.1185  -0.8670  -0.5238
    -0.3326  -0.2058  -0.1642  -0.0564   0.0426   0.1736   0.3658   0.4073
     0.4977   0.5538   0.6525   0.7265   0.7465   0.8794   0.9534   1.0641
     1.1403   1.2180   1.2755   1.3782   1.5745   1.6521   1.7039   1.7742
     1.8778   1.9868   2.0406   2.1231   2.2619   2.4092   2.5154   2.6046
     2.8045   2.8597   2.9315   3.0282   3.0440   3.1340   3.4309   3.4953
     3.6148   3.6659   3.6764   3.6912   3.7082   3.7993   4.1546   4.2082
     4.3423   4.4144   4.5941   4.6889   4.8908   4.9099   4.9919   5.0289
     5.3259   5.4005   5.4355   5.4829   5.6026   5.6653   5.6902   5.7415
     5.7803   5.8348   5.9759   6.0485   6.0659   6.1268   6.1395   6.2110
     6.3324   6.4349   6.4614   6.5397   6.7693   6.8486   6.9577   7.0113
     7.0341   7.0946   7.1182   7.1733   7.2728   7.3577   7.4023   7.4872
     7.5247   7.5798   7.6208   7.6827   7.7701   7.8186   7.9674   7.9910
     8.0520   8.1024   8.3618   8.4054   8.4884   8.5595   8.5891   8.6687
     8.8203   8.9087   9.0247   9.0472   9.0721   9.1147   9.1363   9.2103
     9.3291   9.3734   9.3804   9.4423   9.4861   9.5464   9.5585   9.6579
     9.6861   9.7973   9.8706   9.9313   9.9935  10.0371  10.1727  10.2189
    10.2949  10.3327  10.4190  10.5267  10.5459  10.5963  10.7536  10.8047
    10.8183  10.8726  10.9827  11.0175  11.0334  11.0969  11.1094  11.1739
    11.2014  11.2507  11.2941  11.3596  11.4324  11.4906  11.5482  11.5906
    11.6227  11.6358  11.6471  11.6697  11.6954  11.7313  11.8323  11.9478
    12.0367  12.0826  12.1009  12.1342  12.1595  12.2050  12.3513  12.3715
    12.4033  12.4163  12.4972  12.5798  12.6869  12.7619  12.7702  12.8631
    12.9693  13.0035  13.0199  13.0510  13.0687  13.0969  13.2270  13.2681
    13.3057  13.3233  13.3665  13.4165  13.4371  13.4764  13.4873  13.5392
    13.6024  13.6768  13.7497  13.8188  13.8732  13.8975  13.9106  13.9506
    13.9712  14.0493  14.1722  14.2905  14.3975  14.4473  14.4982  14.5699
    14.6001  14.6460  14.7395  14.8474  14.8537  14.9234  14.9554  15.0180
    15.0727  15.1033  15.1389  15.1551  15.2345  15.2941  15.4557  15.4975
    15.5065  15.5586  15.5719  15.6177  15.6293  15.7081  15.7158  15.7900
    15.8019  15.8895  15.9571  16.0138  16.0596  16.0968  16.1100  16.1321
    16.1615  16.1720  16.2538  16.3201  16.3432  16.3979  16.5344  16.5789
    16.5842  16.6362  16.6849  16.7321  16.7776  16.8013  16.8324  16.8688
    16.8991  16.9455  17.0720  17.1194  17.1509  17.1716  17.1895  17.2164
    17.2319  17.2835  17.3122  17.3531  17.4345  17.4860  17.5566  17.5740
    17.5958  17.6389  17.7897  17.8442  17.8520  17.8952  17.9391  17.9560
    18.0043  18.0169  18.0191  18.0724  18.1018  18.1406  18.1703  18.2174
    18.3126  18.3238  18.3556  18.3797  18.5036  18.5863  18.7995  18.8379
    18.9101  18.9614  18.9796  18.9862  19.0322  19.0388  19.0781  19.1006
    19.1576  19.2220  19.2595  19.2774  19.3230  19.3255  19.3470  19.4192
    19.4844  19.5691  19.6107  19.6793  19.7624  19.8232  19.8415  19.8789
    19.9637  19.9996  20.0208  20.0460  20.0568  20.1164  20.1421  20.1963
    20.2706  20.3121  20.3369  20.3504  20.4850  20.5283  20.6104  20.6826
    20.6983  20.7128  20.7743  20.7821  20.8005  20.8561  20.8886  20.9343
    20.9535  20.9923  21.0063  21.0624  21.0666  21.1188  21.2072  21.2431
    21.2693  21.2957  21.3906  21.4455  21.5037  21.5351  21.5741  21.6348
    21.6436  21.6797  21.7321  21.7850  21.7944  21.8458  21.8574  21.9069
    21.9186  21.9786  21.9831  22.0380  22.0602  22.1138  22.1775  22.2071
    22.2396  22.2663  22.2944  22.3255  22.3545  22.3717  22.3931  22.4493
    22.5743  22.6169  22.6525  22.6833  22.7974  22.8683  22.8805  22.9152
    22.9354  22.9466  22.9907  23.0055  23.1680  23.2007  23.2188  23.2502
    23.2671  23.2926  23.3146  23.3321  23.3529  23.4154  23.4587  23.4732
    23.5081  23.5259  23.5389  23.5715  23.6086  23.6969  23.7313  23.7772
    23.8715  23.8831  23.9062  23.9374  23.9673  23.9825  24.1237  24.1571
    24.1843  24.1929  24.2148  24.2259  24.2515  24.3038  24.4048  24.4283
    24.4505  24.4671  24.4964  24.5083  24.5359  24.5834  24.5990  24.6373
    24.6954  24.7392  24.7636  24.8043  24.8733  24.9349  24.9703  24.9927
    25.0305  25.0402  25.0484  25.1001  25.1475  25.2084  25.2780  25.3098
    25.3279  25.3735  25.3883  25.4080  25.4345  25.4719  25.4852  25.5435
    25.6346  25.6741  25.6961  25.7324  25.7741  25.8281  25.8762  25.9239
    25.9381  25.9684  25.9921  26.0225  26.0526  26.1115  26.1950  26.2468
    26.2908  26.3659  26.3716  26.3981  26.4331  26.4619  26.5012  26.5642
    26.6112  26.6821  26.7072  26.7226  26.7564  26.7794  26.8063  26.8738
    26.8832  26.9265  26.9328  26.9716  26.9868  27.0270  27.1046  27.1420
    27.1606  27.2215  27.3197  27.3894  27.4236  27.4565  27.4960  27.5073

     occupation numbers 
     1.0000   1.0000   1.0000   1.0000   1.0000   1.0000   1.0000   1.0000
     1.0000   1.0000   1.0000   1.0000   1.0000   1.0000   1.0000   1.0000
     1.0000   1.0000   1.0000   1.0000   1.0000   1.0000   1.0000   1.0000
     1.0000   1.0000   1.0000   1.0000   1.0000   1.0000   1.0000   1.0000
     1.0000   1.0000   1.0000   1.0000   1.0000   1.0000   1.0000   1.0000
     1.0000   1.0000   1.0000   1.0000   1.0000   1.0000   1.0000   1.0000
     1.0000   1.0000   1.0000   1.0000   1.0000   1.0000   1.0000   1.0000
     1.0000   1.0000   1.0000   1.0000   1.0000   1.0000   1.0000   1.0000
     1.0000   1.0000   1.0000   1.0000   0.0000   0.0000   0.0000   0.0000
     0.0000   0.0000   0.0000   0.0000   0.0000   0.0000   0.0000   0.0000
     0.0000   0.0000   0.0000   0.0000   0.0000   0.0000   0.0000   0.0000
     0.0000   0.0000   0.0000   0.0000   0.0000   0.0000   0.0000   0.0000
     0.0000   0.0000   0.0000   0.0000   0.0000   0.0000   0.0000   0.0000
     0.0000   0.0000   0.0000   0.0000   0.0000   0.0000   0.0000   0.0000
     0.0000   0.0000   0.0000   0.0000   0.0000   0.0000   0.0000   0.0000
     0.0000   0.0000   0.0000   0.0000   0.0000   0.0000   0.0000   0.0000
     0.0000   0.0000   0.0000   0.0000   0.0000   0.0000   0.0000   0.0000
     0.0000   0.0000   0.0000   0.0000   0.0000   0.0000   0.0000   0.0000
     0.0000   0.0000   0.0000   0.0000   0.0000   0.0000   0.0000   0.0000
     0.0000   0.0000   0.0000   0.0000   0.0000   0.0000   0.0000   0.0000
     0.0000   0.0000   0.0000   0.0000   0.0000   0.0000   0.0000   0.0000
     0.0000   0.0000   0.0000   0.0000   0.0000   0.0000   0.0000   0.0000
     0.0000   0.0000   0.0000   0.0000   0.0000   0.0000   0.0000   0.0000
     0.0000   0.0000   0.0000   0.0000   0.0000   0.0000   0.0000   0.0000
     0.0000   0.0000   0.0000   0.0000   0.0000   0.0000   0.0000   0.0000
     0.0000   0.0000   0.0000   0.0000   0.0000   0.0000   0.0000   0.0000
     0.0000   0.0000   0.0000   0.0000   0.0000   0.0000   0.0000   0.0000
     0.0000   0.0000   0.0000   0.0000   0.0000   0.0000   0.0000   0.0000
     0.0000   0.0000   0.0000   0.0000   0.0000   0.0000   0.0000   0.0000
     0.0000   0.0000   0.0000   0.0000   0.0000   0.0000   0.0000   0.0000
     0.0000   0.0000   0.0000   0.0000   0.0000   0.0000   0.0000   0.0000
     0.0000   0.0000   0.0000   0.0000   0.0000   0.0000   0.0000   0.0000
     0.0000   0.0000   0.0000   0.0000   0.0000   0.0000   0.0000   0.0000
     0.0000   0.0000   0.0000   0.0000   0.0000   0.0000   0.0000   0.0000
     0.0000   0.0000   0.0000   0.0000   0.0000   0.0000   0.0000   0.0000
     0.0000   0.0000   0.0000   0.0000   0.0000   0.0000   0.0000   0.0000
     0.0000   0.0000   0.0000   0.0000   0.0000   0.0000   0.0000   0.0000
     0.0000   0.0000   0.0000   0.0000   0.0000   0.0000   0.0000   0.0000
     0.0000   0.0000   0.0000   0.0000   0.0000   0.0000   0.0000   0.0000
     0.0000   0.0000   0.0000   0.0000   0.0000   0.0000   0.0000   0.0000
     0.0000   0.0000   0.0000   0.0000   0.0000   0.0000   0.0000   0.0000
     0.0000   0.0000   0.0000   0.0000   0.0000   0.0000   0.0000   0.0000
     0.0000   0.0000   0.0000   0.0000   0.0000   0.0000   0.0000   0.0000
     0.0000   0.0000   0.0000   0.0000   0.0000   0.0000   0.0000   0.0000
     0.0000   0.0000   0.0000   0.0000   0.0000   0.0000   0.0000   0.0000
     0.0000   0.0000   0.0000   0.0000   0.0000   0.0000   0.0000   0.0000
     0.0000   0.0000   0.0000   0.0000   0.0000   0.0000   0.0000   0.0000
     0.0000   0.0000   0.0000   0.0000   0.0000   0.0000   0.0000   0.0000
     0.0000   0.0000   0.0000   0.0000   0.0000   0.0000   0.0000   0.0000
     0.0000   0.0000   0.0000   0.0000   0.0000   0.0000   0.0000   0.0000
     0.0000   0.0000   0.0000   0.0000   0.0000   0.0000   0.0000   0.0000
     0.0000   0.0000   0.0000   0.0000   0.0000   0.0000   0.0000   0.0000
     0.0000   0.0000   0.0000   0.0000   0.0000   0.0000   0.0000   0.0000
     0.0000   0.0000   0.0000   0.0000   0.0000   0.0000   0.0000   0.0000
     0.0000   0.0000   0.0000   0.0000   0.0000   0.0000   0.0000   0.0000
     0.0000   0.0000   0.0000   0.0000   0.0000   0.0000   0.0000   0.0000
     0.0000   0.0000   0.0000   0.0000   0.0000   0.0000   0.0000   0.0000
     0.0000   0.0000   0.0000   0.0000   0.0000   0.0000   0.0000   0.0000
     0.0000   0.0000   0.0000   0.0000   0.0000   0.0000   0.0000   0.0000
     0.0000   0.0000   0.0000   0.0000   0.0000   0.0000   0.0000   0.0000
     0.0000   0.0000   0.0000   0.0000   0.0000   0.0000   0.0000   0.0000
     0.0000   0.0000   0.0000   0.0000   0.0000   0.0000   0.0000   0.0000
     0.0000   0.0000   0.0000   0.0000   0.0000   0.0000   0.0000   0.0000
     0.0000   0.0000   0.0000   0.0000   0.0000   0.0000   0.0000   0.0000
     0.0000   0.0000   0.0000   0.0000   0.0000   0.0000   0.0000   0.0000
     0.0000   0.0000   0.0000   0.0000   0.0000   0.0000   0.0000   0.0000
     0.0000   0.0000   0.0000   0.0000   0.0000   0.0000   0.0000   0.0000
     0.0000   0.0000   0.0000   0.0000   0.0000   0.0000   0.0000   0.0000
     0.0000   0.0000   0.0000   0.0000   0.0000   0.0000   0.0000   0.0000
     0.0000   0.0000   0.0000   0.0000   0.0000   0.0000   0.0000   0.0000
     0.0000   0.0000   0.0000   0.0000   0.0000   0.0000   0.0000   0.0000
     0.0000   0.0000   0.0000   0.0000   0.0000   0.0000   0.0000   0.0000
     0.0000   0.0000   0.0000   0.0000   0.0000   0.0000   0.0000   0.0000
     0.0000   0.0000   0.0000   0.0000   0.0000   0.0000   0.0000   0.0000
     0.0000   0.0000   0.0000   0.0000   0.0000   0.0000   0.0000   0.0000

          k = 0.3333 0.5774 0.0000 ( 59388 PWs)   bands (ev):

   -73.4619 -73.4616 -71.3726 -71.3723 -47.5872 -47.5869 -47.2961 -47.2958
   -46.9681 -46.9678 -45.3648 -45.3644 -45.0702 -45.0699 -44.8923 -44.8919
   -17.9686 -17.9683 -17.9246 -17.9239 -17.7701 -17.6868 -17.6776 -17.6754
   -17.6740 -17.5347 -17.5345 -17.4175 -11.6694 -11.5148 -11.5137 -11.2515
    -9.8808  -9.8693  -9.7429  -9.7272  -9.1817  -9.1544  -9.0735  -9.0715
    -8.9302  -8.9094  -8.5574  -8.5543  -8.2903  -8.2626  -8.1467  -8.0295
    -7.9048  -7.6246  -7.3787  -7.3421  -7.2393  -7.1851  -7.0173  -6.9635
    -6.8953  -6.7364  -6.7041  -6.6448  -6.6074  -6.5634  -6.4792  -6.3633
    -5.9998  -5.8277  -5.7581  -5.7502  -5.2394  -5.2084  -5.2027  -5.0025
    -4.9175  -4.8849  -4.1872  -4.1810  -4.0836  -3.8568  -3.7808  -3.7528
    -2.3582  -2.3394  -2.3346  -2.3071  -1.3246  -1.3127  -0.9807  -0.9690
    -0.4354  -0.3174  -0.2514  -0.2412  -0.1241  -0.1141   0.3021   0.3057
     0.4603   0.4656   0.5954   0.6797   0.8798   0.9789   1.0829   1.1139
     1.1158   1.1380   1.1572   1.1593   1.2649   1.2710   1.4511   1.4542
     1.9816   2.0172   2.0871   2.1671   2.1830   2.2753   2.2926   2.3105
     2.6381   2.7032   3.2626   3.3008   3.3750   3.4041   3.9204   3.9449
     3.9727   3.9953   4.1019   4.1244   4.4717   4.4957   4.5407   4.5550
     4.6873   4.7349   5.0936   5.0964   5.1821   5.1878   5.3215   5.3647
     5.5240   5.5903   5.5994   5.6813   5.6977   5.7026   5.8102   5.8152
     5.8809   5.9043   5.9260   5.9308   6.0484   6.0887   6.1031   6.1545
     6.2444   6.2664   6.4558   6.4915   6.5141   6.5492   6.6157   6.6407
     6.6790   6.7481   6.7819   6.7919   6.7988   6.8245   6.8365   7.0612
     7.2763   7.2851   7.3080   7.3084   7.3582   7.3604   7.4186   7.4296
     7.4457   7.5004   7.6799   7.6892   7.7508   7.7571   8.2888   8.3111
     9.2883   9.3082   9.3174   9.3667   9.3748   9.3793   9.4246   9.4738
     9.5763   9.5820   9.6376   9.6419   9.6788   9.7221   9.7851   9.7856
     9.8278   9.8311  10.1963  10.2078  10.2514  10.2631  10.4298  10.4478
    10.5498  10.5546  10.5625  10.5704  10.5736  10.5824  10.7353  10.8609
    10.8629  10.8811  10.9301  10.9458  11.2161  11.2254  11.2268  11.2644
    11.2707  11.3869  11.4975  11.5103  11.5400  11.6050  11.6138  11.6198
    11.8778  11.9076  12.0282  12.0647  12.0720  12.0815  12.1582  12.1649
    12.1690  12.2028  12.3250  12.3844  12.4173  12.5047  12.5420  12.5624
    12.5740  12.5934  12.7308  12.7735  12.8128  12.8605  12.8635  12.8927
    12.9121  12.9166  12.9200  12.9432  12.9892  12.9899  13.2083  13.2212
    13.2877  13.3015  13.6116  13.6694  13.6725  13.7281  13.7495  13.7880
    13.8087  13.8599  13.8681  13.8766  13.9627  13.9924  14.0089  14.0502
    14.1811  14.1930  14.2229  14.2326  14.2746  14.3148  14.3155  14.3524
    14.3615  14.3970  14.4038  14.4471  14.7059  14.7461  14.8772  14.8871
    14.9037  14.9267  14.9302  14.9460  14.9544  14.9631  14.9788  15.0204
    15.1210  15.1921  15.2056  15.2327  15.2656  15.2782  15.3632  15.3779
    15.3782  15.4078  15.4175  15.4236  15.7104  15.7224  15.7326  15.7618
    15.7626  15.7823  15.8054  15.8273  15.9111  15.9144  15.9807  15.9818
    16.0403  16.0413  16.0981  16.0986  16.2980  16.3344  16.9537  16.9569
    17.0035  17.0067  17.0628  17.0972  17.2720  17.2750  17.3168  17.3195
    17.4283  17.4789  17.5662  17.5716  17.6049  17.6099  17.7049  17.7524
    18.0183  18.0226  18.0234  18.0796  18.0820  18.0880  18.0925  18.0958
    18.1057  18.1245  18.1288  18.1742  18.2015  18.2470  18.3532  18.3633
    18.4178  18.4275  18.6518  18.6552  18.6764  18.6907  18.6910  18.7209
    18.9955  19.0309  19.0500  19.0535  19.0869  19.0899  19.2437  19.2702
    19.3589  19.3595  19.3807  19.3812  19.4599  19.4910  19.4967  19.5338
    19.5734  19.5779  19.5883  19.6444  19.6447  19.6517  19.6846  19.6853
    19.7756  19.8269  20.1748  20.1876  20.2662  20.2795  20.3477  20.3902
    20.3956  20.4124  20.4622  20.4632  20.4772  20.5444  20.5535  20.5631
    20.6028  20.6201  20.7113  20.7646  20.7873  20.7943  20.8632  20.8664
    21.0514  21.0545  21.1248  21.1273  21.1420  21.1522  21.1544  21.1827
    21.2462  21.2516  21.3795  21.3798  21.4108  21.4112  21.4134  21.5735
    21.5887  21.5997  21.7495  21.7806  21.7905  21.7991  21.8377  21.8422
    22.0823  22.0906  22.1050  22.1393  22.1486  22.1609  22.1982  22.2408
    22.4215  22.4220  22.4819  22.5224  22.5225  22.5501  22.6265  22.6390
    22.7030  22.7056  22.7095  22.7139  22.7747  22.7804  22.8306  22.8329
    22.9394  22.9399  22.9538  22.9671  23.0057  23.0684  23.1658  23.1687
    23.1702  23.2104  23.2108  23.2300  23.3116  23.3545  23.5103  23.5145
    23.5868  23.5910  23.7022  23.7178  23.7647  23.8145  23.8334  23.8370
    23.8534  23.9171  24.0776  24.1229  24.1259  24.1708  24.1725  24.2428
    24.3211  24.3249  24.3321  24.3344  24.3689  24.3703  24.3931  24.4050
    24.4609  24.5210  24.6218  24.6969  24.8024  24.8366  24.8606  24.8914
    24.9600  24.9740  25.0193  25.0301  25.0336  25.0533  25.0680  25.0961
    25.3607  25.3653  25.4212  25.4226  25.4481  25.4619  25.4817  25.4921
    25.5018  25.5023  25.5197  25.5276  25.5334  25.5654  25.5662  25.5707
    25.8028  25.8633  25.8739  25.8898  25.9353  25.9713  25.9897  25.9908
    25.9994  26.0253  26.0284  26.0550  26.0667  26.0823  26.1056  26.1167
    26.1861  26.2203  26.3291  26.3338  26.3993  26.4034  26.5802  26.5898
    26.6119  26.6453  26.6526  26.6561  26.6862  26.7047  26.7535  26.7877
    26.9413  26.9538  27.0041  27.0178  27.0463  27.0645  27.0768  27.1049
    27.1361  27.1414  27.2131  27.2337  27.3183  27.3242  27.3504  27.3522

     occupation numbers 
     1.0000   1.0000   1.0000   1.0000   1.0000   1.0000   1.0000   1.0000
     1.0000   1.0000   1.0000   1.0000   1.0000   1.0000   1.0000   1.0000
     1.0000   1.0000   1.0000   1.0000   1.0000   1.0000   1.0000   1.0000
     1.0000   1.0000   1.0000   1.0000   1.0000   1.0000   1.0000   1.0000
     1.0000   1.0000   1.0000   1.0000   1.0000   1.0000   1.0000   1.0000
     1.0000   1.0000   1.0000   1.0000   1.0000   1.0000   1.0000   1.0000
     1.0000   1.0000   1.0000   1.0000   1.0000   1.0000   1.0000   1.0000
     1.0000   1.0000   1.0000   1.0000   1.0000   1.0000   1.0000   1.0000
     1.0000   1.0000   1.0000   1.0000   0.0000   0.0000   0.0000   0.0000
     0.0000   0.0000   0.0000   0.0000   0.0000   0.0000   0.0000   0.0000
     0.0000   0.0000   0.0000   0.0000   0.0000   0.0000   0.0000   0.0000
     0.0000   0.0000   0.0000   0.0000   0.0000   0.0000   0.0000   0.0000
     0.0000   0.0000   0.0000   0.0000   0.0000   0.0000   0.0000   0.0000
     0.0000   0.0000   0.0000   0.0000   0.0000   0.0000   0.0000   0.0000
     0.0000   0.0000   0.0000   0.0000   0.0000   0.0000   0.0000   0.0000
     0.0000   0.0000   0.0000   0.0000   0.0000   0.0000   0.0000   0.0000
     0.0000   0.0000   0.0000   0.0000   0.0000   0.0000   0.0000   0.0000
     0.0000   0.0000   0.0000   0.0000   0.0000   0.0000   0.0000   0.0000
     0.0000   0.0000   0.0000   0.0000   0.0000   0.0000   0.0000   0.0000
     0.0000   0.0000   0.0000   0.0000   0.0000   0.0000   0.0000   0.0000
     0.0000   0.0000   0.0000   0.0000   0.0000   0.0000   0.0000   0.0000
     0.0000   0.0000   0.0000   0.0000   0.0000   0.0000   0.0000   0.0000
     0.0000   0.0000   0.0000   0.0000   0.0000   0.0000   0.0000   0.0000
     0.0000   0.0000   0.0000   0.0000   0.0000   0.0000   0.0000   0.0000
     0.0000   0.0000   0.0000   0.0000   0.0000   0.0000   0.0000   0.0000
     0.0000   0.0000   0.0000   0.0000   0.0000   0.0000   0.0000   0.0000
     0.0000   0.0000   0.0000   0.0000   0.0000   0.0000   0.0000   0.0000
     0.0000   0.0000   0.0000   0.0000   0.0000   0.0000   0.0000   0.0000
     0.0000   0.0000   0.0000   0.0000   0.0000   0.0000   0.0000   0.0000
     0.0000   0.0000   0.0000   0.0000   0.0000   0.0000   0.0000   0.0000
     0.0000   0.0000   0.0000   0.0000   0.0000   0.0000   0.0000   0.0000
     0.0000   0.0000   0.0000   0.0000   0.0000   0.0000   0.0000   0.0000
     0.0000   0.0000   0.0000   0.0000   0.0000   0.0000   0.0000   0.0000
     0.0000   0.0000   0.0000   0.0000   0.0000   0.0000   0.0000   0.0000
     0.0000   0.0000   0.0000   0.0000   0.0000   0.0000   0.0000   0.0000
     0.0000   0.0000   0.0000   0.0000   0.0000   0.0000   0.0000   0.0000
     0.0000   0.0000   0.0000   0.0000   0.0000   0.0000   0.0000   0.0000
     0.0000   0.0000   0.0000   0.0000   0.0000   0.0000   0.0000   0.0000
     0.0000   0.0000   0.0000   0.0000   0.0000   0.0000   0.0000   0.0000
     0.0000   0.0000   0.0000   0.0000   0.0000   0.0000   0.0000   0.0000
     0.0000   0.0000   0.0000   0.0000   0.0000   0.0000   0.0000   0.0000
     0.0000   0.0000   0.0000   0.0000   0.0000   0.0000   0.0000   0.0000
     0.0000   0.0000   0.0000   0.0000   0.0000   0.0000   0.0000   0.0000
     0.0000   0.0000   0.0000   0.0000   0.0000   0.0000   0.0000   0.0000
     0.0000   0.0000   0.0000   0.0000   0.0000   0.0000   0.0000   0.0000
     0.0000   0.0000   0.0000   0.0000   0.0000   0.0000   0.0000   0.0000
     0.0000   0.0000   0.0000   0.0000   0.0000   0.0000   0.0000   0.0000
     0.0000   0.0000   0.0000   0.0000   0.0000   0.0000   0.0000   0.0000
     0.0000   0.0000   0.0000   0.0000   0.0000   0.0000   0.0000   0.0000
     0.0000   0.0000   0.0000   0.0000   0.0000   0.0000   0.0000   0.0000
     0.0000   0.0000   0.0000   0.0000   0.0000   0.0000   0.0000   0.0000
     0.0000   0.0000   0.0000   0.0000   0.0000   0.0000   0.0000   0.0000
     0.0000   0.0000   0.0000   0.0000   0.0000   0.0000   0.0000   0.0000
     0.0000   0.0000   0.0000   0.0000   0.0000   0.0000   0.0000   0.0000
     0.0000   0.0000   0.0000   0.0000   0.0000   0.0000   0.0000   0.0000
     0.0000   0.0000   0.0000   0.0000   0.0000   0.0000   0.0000   0.0000
     0.0000   0.0000   0.0000   0.0000   0.0000   0.0000   0.0000   0.0000
     0.0000   0.0000   0.0000   0.0000   0.0000   0.0000   0.0000   0.0000
     0.0000   0.0000   0.0000   0.0000   0.0000   0.0000   0.0000   0.0000
     0.0000   0.0000   0.0000   0.0000   0.0000   0.0000   0.0000   0.0000
     0.0000   0.0000   0.0000   0.0000   0.0000   0.0000   0.0000   0.0000
     0.0000   0.0000   0.0000   0.0000   0.0000   0.0000   0.0000   0.0000
     0.0000   0.0000   0.0000   0.0000   0.0000   0.0000   0.0000   0.0000
     0.0000   0.0000   0.0000   0.0000   0.0000   0.0000   0.0000   0.0000
     0.0000   0.0000   0.0000   0.0000   0.0000   0.0000   0.0000   0.0000
     0.0000   0.0000   0.0000   0.0000   0.0000   0.0000   0.0000   0.0000
     0.0000   0.0000   0.0000   0.0000   0.0000   0.0000   0.0000   0.0000
     0.0000   0.0000   0.0000   0.0000   0.0000   0.0000   0.0000   0.0000
     0.0000   0.0000   0.0000   0.0000   0.0000   0.0000   0.0000   0.0000
     0.0000   0.0000   0.0000   0.0000   0.0000   0.0000   0.0000   0.0000
     0.0000   0.0000   0.0000   0.0000   0.0000   0.0000   0.0000   0.0000
     0.0000   0.0000   0.0000   0.0000   0.0000   0.0000   0.0000   0.0000
     0.0000   0.0000   0.0000   0.0000   0.0000   0.0000   0.0000   0.0000
     0.0000   0.0000   0.0000   0.0000   0.0000   0.0000   0.0000   0.0000
     0.0000   0.0000   0.0000   0.0000   0.0000   0.0000   0.0000   0.0000

          k = 0.3333-0.3849 0.0000 ( 59462 PWs)   bands (ev):

   -73.4619 -73.4615 -71.3727 -71.3723 -47.5877 -47.5864 -47.2962 -47.2957
   -46.9687 -46.9672 -45.3654 -45.3638 -45.0703 -45.0698 -44.8930 -44.8912
   -18.1283 -18.0943 -17.8461 -17.8083 -17.7746 -17.7059 -17.6693 -17.6354
   -17.6023 -17.5936 -17.4738 -17.3873 -11.6752 -11.5857 -11.4095 -11.2395
   -10.1114  -9.9816  -9.7448  -9.6101  -9.3857  -9.3592  -9.0928  -9.0150
    -8.8301  -8.7469  -8.4557  -8.3283  -8.2772  -8.1938  -8.0288  -7.8851
    -7.7896  -7.5917  -7.5055  -7.3895  -7.3259  -7.2502  -7.1550  -7.0419
    -6.9029  -6.8637  -6.7812  -6.6893  -6.6122  -6.4988  -6.4223  -6.3082
    -6.0628  -5.9662  -5.9098  -5.6740  -5.3020  -5.2030  -5.1255  -5.0180
    -4.9476  -4.9101  -4.1919  -4.1570  -4.0073  -3.8575  -3.8043  -3.7676
    -2.4934  -2.3715  -2.3228  -2.2759  -1.4771  -1.1192  -0.8657  -0.5221
    -0.3335  -0.2070  -0.1645  -0.0562   0.0434   0.1737   0.3645   0.4092
     0.4969   0.5549   0.6523   0.7253   0.7467   0.8776   0.9490   1.0605
     1.1444   1.2211   1.2793   1.3827   1.5731   1.6510   1.7032   1.7723
     1.8789   1.9818   2.0407   2.1183   2.2658   2.4124   2.5154   2.6043
     2.8008   2.8562   2.9322   3.0307   3.0491   3.1406   3.4288   3.4939
     3.6160   3.6689   3.6745   3.6880   3.7084   3.7951   4.1571   4.2106
     4.3424   4.4143   4.5918   4.6880   4.8877   4.9107   4.9883   5.0293
     5.3276   5.4023   5.4366   5.4835   5.6020   5.6636   5.6862   5.7396
     5.7833   5.8385   5.9782   6.0502   6.0659   6.1283   6.1390   6.2136
     6.3273   6.4308   6.4606   6.5377   6.7791   6.8572   6.9615   7.0114
     7.0310   7.0902   7.1129   7.1669   7.2723   7.3575   7.3998   7.4850
     7.5265   7.5816   7.6205   7.6818   7.7744   7.8227   7.9635   7.9945
     8.0479   8.1071   8.3668   8.4095   8.4833   8.5554   8.5869   8.6697
     8.8213   8.9102   9.0243   9.0464   9.0708   9.1149   9.1364   9.2101
     9.3256   9.3724   9.3784   9.4412   9.4840   9.5465   9.5596   9.6585
     9.6884   9.7994   9.8747   9.9350   9.9940  10.0384  10.1682  10.2144
    10.2959  10.3339  10.4195  10.5274  10.5475  10.5973  10.7544  10.8016
    10.8200  10.8695  10.9795  11.0139  11.0294  11.0945  11.1137  11.1708
    11.2042  11.2463  11.2989  11.3644  11.4340  11.4923  11.5450  11.5901
    11.6223  11.6335  11.6451  11.6687  11.6945  11.7271  11.8369  11.9519
    12.0439  12.0819  12.1067  12.1333  12.1588  12.2059  12.3499  12.3729
    12.4021  12.4172  12.4979  12.5806  12.6866  12.7612  12.7711  12.8635
    12.9711  13.0030  13.0217  13.0545  13.0685  13.1028  13.2249  13.2649
    13.3028  13.3201  13.3645  13.4141  13.4383  13.4742  13.4896  13.5351
    13.5980  13.6737  13.7465  13.8161  13.8740  13.8983  13.9111  13.9519
    13.9746  14.0533  14.1715  14.2893  14.3959  14.4456  14.5006  14.5714
    14.6009  14.6459  14.7385  14.8475  14.8576  14.9252  14.9532  15.0137
    15.0726  15.1034  15.1390  15.1558  15.2348  15.2943  15.4564  15.4984
    15.5072  15.5595  15.5726  15.6167  15.6309  15.7052  15.7175  15.7927
    15.8010  15.8861  15.9605  16.0170  16.0587  16.0971  16.1102  16.1339
    16.1620  16.1739  16.2504  16.3163  16.3421  16.3964  16.5370  16.5811
    16.5851  16.6380  16.6852  16.7326  16.7764  16.8013  16.8307  16.8678
    16.9004  16.9484  17.0700  17.1186  17.1461  17.1718  17.1863  17.2155
    17.2312  17.2800  17.3136  17.3547  17.4376  17.4896  17.5585  17.5694
    17.5971  17.6359  17.7916  17.8451  17.8527  17.8955  17.9360  17.9553
    18.0016  18.0159  18.0188  18.0712  18.1047  18.1438  18.1744  18.2220
    18.3095  18.3233  18.3530  18.3793  18.5038  18.5868  18.7989  18.8375
    18.9116  18.9629  18.9801  18.9862  19.0295  19.0348  19.0814  19.0942
    19.1525  19.2180  19.2592  19.2776  19.3223  19.3261  19.3503  19.4221
    19.4871  19.5718  19.6098  19.6773  19.7631  19.8237  19.8430  19.8784
    19.9663  20.0007  20.0232  20.0471  20.0581  20.1180  20.1481  20.2025
    20.2654  20.3136  20.3316  20.3524  20.4816  20.5244  20.6106  20.6822
    20.6983  20.7119  20.7757  20.7828  20.7985  20.8587  20.8895  20.9345
    20.9545  20.9939  21.0082  21.0624  21.0669  21.1180  21.2038  21.2438
    21.2653  21.2967  21.3934  21.4488  21.5058  21.5370  21.5681  21.6335
    21.6383  21.6802  21.7315  21.7811  21.7895  21.8437  21.8511  21.9094
    21.9206  21.9791  21.9872  22.0392  22.0591  22.1125  22.1746  22.2098
    22.2373  22.2685  22.2980  22.3236  22.3554  22.3719  22.3927  22.4468
    22.5751  22.6141  22.6518  22.6806  22.8001  22.8715  22.8822  22.9168
    22.9354  22.9500  22.9900  23.0090  23.1667  23.2024  23.2172  23.2542
    23.2697  23.2951  23.3182  23.3330  23.3529  23.4166  23.4594  23.4738
    23.5066  23.5246  23.5391  23.5692  23.6094  23.6987  23.7291  23.7758
    23.8713  23.8781  23.9040  23.9353  23.9649  23.9780  24.1247  24.1554
    24.1805  24.1919  24.2134  24.2235  24.2503  24.3020  24.4040  24.4319
    24.4505  24.4648  24.4956  24.5127  24.5363  24.5861  24.5993  24.6395
    24.6968  24.7395  24.7642  24.8048  24.8769  24.9390  24.9679  24.9918
    25.0285  25.0409  25.0492  25.1005  25.1485  25.2093  25.2779  25.3078
    25.3278  25.3703  25.3907  25.4080  25.4361  25.4754  25.4874  25.5455
    25.6342  25.6747  25.6957  25.7339  25.7746  25.8283  25.8765  25.9243
    25.9397  25.9681  25.9935  26.0219  26.0531  26.1117  26.1925  26.2449
    26.2895  26.3640  26.3716  26.3955  26.4341  26.4574  26.5034  26.5666
    26.6056  26.6763  26.7011  26.7202  26.7506  26.7775  26.8065  26.8737
    26.8829  26.9259  26.9382  26.9751  26.9919  27.0309  27.1080  27.1438
    27.1653  27.2275  27.3176  27.3873  27.4203  27.4550  27.4937  27.5075

     occupation numbers 
     1.0000   1.0000   1.0000   1.0000   1.0000   1.0000   1.0000   1.0000
     1.0000   1.0000   1.0000   1.0000   1.0000   1.0000   1.0000   1.0000
     1.0000   1.0000   1.0000   1.0000   1.0000   1.0000   1.0000   1.0000
     1.0000   1.0000   1.0000   1.0000   1.0000   1.0000   1.0000   1.0000
     1.0000   1.0000   1.0000   1.0000   1.0000   1.0000   1.0000   1.0000
     1.0000   1.0000   1.0000   1.0000   1.0000   1.0000   1.0000   1.0000
     1.0000   1.0000   1.0000   1.0000   1.0000   1.0000   1.0000   1.0000
     1.0000   1.0000   1.0000   1.0000   1.0000   1.0000   1.0000   1.0000
     1.0000   1.0000   1.0000   1.0000   0.0000   0.0000   0.0000   0.0000
     0.0000   0.0000   0.0000   0.0000   0.0000   0.0000   0.0000   0.0000
     0.0000   0.0000   0.0000   0.0000   0.0000   0.0000   0.0000   0.0000
     0.0000   0.0000   0.0000   0.0000   0.0000   0.0000   0.0000   0.0000
     0.0000   0.0000   0.0000   0.0000   0.0000   0.0000   0.0000   0.0000
     0.0000   0.0000   0.0000   0.0000   0.0000   0.0000   0.0000   0.0000
     0.0000   0.0000   0.0000   0.0000   0.0000   0.0000   0.0000   0.0000
     0.0000   0.0000   0.0000   0.0000   0.0000   0.0000   0.0000   0.0000
     0.0000   0.0000   0.0000   0.0000   0.0000   0.0000   0.0000   0.0000
     0.0000   0.0000   0.0000   0.0000   0.0000   0.0000   0.0000   0.0000
     0.0000   0.0000   0.0000   0.0000   0.0000   0.0000   0.0000   0.0000
     0.0000   0.0000   0.0000   0.0000   0.0000   0.0000   0.0000   0.0000
     0.0000   0.0000   0.0000   0.0000   0.0000   0.0000   0.0000   0.0000
     0.0000   0.0000   0.0000   0.0000   0.0000   0.0000   0.0000   0.0000
     0.0000   0.0000   0.0000   0.0000   0.0000   0.0000   0.0000   0.0000
     0.0000   0.0000   0.0000   0.0000   0.0000   0.0000   0.0000   0.0000
     0.0000   0.0000   0.0000   0.0000   0.0000   0.0000   0.0000   0.0000
     0.0000   0.0000   0.0000   0.0000   0.0000   0.0000   0.0000   0.0000
     0.0000   0.0000   0.0000   0.0000   0.0000   0.0000   0.0000   0.0000
     0.0000   0.0000   0.0000   0.0000   0.0000   0.0000   0.0000   0.0000
     0.0000   0.0000   0.0000   0.0000   0.0000   0.0000   0.0000   0.0000
     0.0000   0.0000   0.0000   0.0000   0.0000   0.0000   0.0000   0.0000
     0.0000   0.0000   0.0000   0.0000   0.0000   0.0000   0.0000   0.0000
     0.0000   0.0000   0.0000   0.0000   0.0000   0.0000   0.0000   0.0000
     0.0000   0.0000   0.0000   0.0000   0.0000   0.0000   0.0000   0.0000
     0.0000   0.0000   0.0000   0.0000   0.0000   0.0000   0.0000   0.0000
     0.0000   0.0000   0.0000   0.0000   0.0000   0.0000   0.0000   0.0000
     0.0000   0.0000   0.0000   0.0000   0.0000   0.0000   0.0000   0.0000
     0.0000   0.0000   0.0000   0.0000   0.0000   0.0000   0.0000   0.0000
     0.0000   0.0000   0.0000   0.0000   0.0000   0.0000   0.0000   0.0000
     0.0000   0.0000   0.0000   0.0000   0.0000   0.0000   0.0000   0.0000
     0.0000   0.0000   0.0000   0.0000   0.0000   0.0000   0.0000   0.0000
     0.0000   0.0000   0.0000   0.0000   0.0000   0.0000   0.0000   0.0000
     0.0000   0.0000   0.0000   0.0000   0.0000   0.0000   0.0000   0.0000
     0.0000   0.0000   0.0000   0.0000   0.0000   0.0000   0.0000   0.0000
     0.0000   0.0000   0.0000   0.0000   0.0000   0.0000   0.0000   0.0000
     0.0000   0.0000   0.0000   0.0000   0.0000   0.0000   0.0000   0.0000
     0.0000   0.0000   0.0000   0.0000   0.0000   0.0000   0.0000   0.0000
     0.0000   0.0000   0.0000   0.0000   0.0000   0.0000   0.0000   0.0000
     0.0000   0.0000   0.0000   0.0000   0.0000   0.0000   0.0000   0.0000
     0.0000   0.0000   0.0000   0.0000   0.0000   0.0000   0.0000   0.0000
     0.0000   0.0000   0.0000   0.0000   0.0000   0.0000   0.0000   0.0000
     0.0000   0.0000   0.0000   0.0000   0.0000   0.0000   0.0000   0.0000
     0.0000   0.0000   0.0000   0.0000   0.0000   0.0000   0.0000   0.0000
     0.0000   0.0000   0.0000   0.0000   0.0000   0.0000   0.0000   0.0000
     0.0000   0.0000   0.0000   0.0000   0.0000   0.0000   0.0000   0.0000
     0.0000   0.0000   0.0000   0.0000   0.0000   0.0000   0.0000   0.0000
     0.0000   0.0000   0.0000   0.0000   0.0000   0.0000   0.0000   0.0000
     0.0000   0.0000   0.0000   0.0000   0.0000   0.0000   0.0000   0.0000
     0.0000   0.0000   0.0000   0.0000   0.0000   0.0000   0.0000   0.0000
     0.0000   0.0000   0.0000   0.0000   0.0000   0.0000   0.0000   0.0000
     0.0000   0.0000   0.0000   0.0000   0.0000   0.0000   0.0000   0.0000
     0.0000   0.0000   0.0000   0.0000   0.0000   0.0000   0.0000   0.0000
     0.0000   0.0000   0.0000   0.0000   0.0000   0.0000   0.0000   0.0000
     0.0000   0.0000   0.0000   0.0000   0.0000   0.0000   0.0000   0.0000
     0.0000   0.0000   0.0000   0.0000   0.0000   0.0000   0.0000   0.0000
     0.0000   0.0000   0.0000   0.0000   0.0000   0.0000   0.0000   0.0000
     0.0000   0.0000   0.0000   0.0000   0.0000   0.0000   0.0000   0.0000
     0.0000   0.0000   0.0000   0.0000   0.0000   0.0000   0.0000   0.0000
     0.0000   0.0000   0.0000   0.0000   0.0000   0.0000   0.0000   0.0000
     0.0000   0.0000   0.0000   0.0000   0.0000   0.0000   0.0000   0.0000
     0.0000   0.0000   0.0000   0.0000   0.0000   0.0000   0.0000   0.0000
     0.0000   0.0000   0.0000   0.0000   0.0000   0.0000   0.0000   0.0000
     0.0000   0.0000   0.0000   0.0000   0.0000   0.0000   0.0000   0.0000
     0.0000   0.0000   0.0000   0.0000   0.0000   0.0000   0.0000   0.0000
     0.0000   0.0000   0.0000   0.0000   0.0000   0.0000   0.0000   0.0000
     0.0000   0.0000   0.0000   0.0000   0.0000   0.0000   0.0000   0.0000

          k = 0.3333-0.1925 0.0000 ( 59506 PWs)   bands (ev):

   -73.4619 -73.4615 -71.3727 -71.3723 -47.5882 -47.5859 -47.2963 -47.2956
   -46.9692 -46.9667 -45.3659 -45.3633 -45.0705 -45.0696 -44.8936 -44.8906
   -18.2614 -18.2342 -17.8182 -17.7399 -17.7268 -17.6982 -17.6688 -17.6509
   -17.5482 -17.5206 -17.4176 -17.3654 -11.6713 -11.6033 -11.3382 -11.2335
   -10.2032 -10.0797  -9.7576  -9.6292  -9.4736  -9.4275  -9.1176  -9.0815
    -8.8897  -8.8255  -8.4468  -8.3591  -8.1074  -7.9295  -7.8463  -7.7542
    -7.6914  -7.6429  -7.5798  -7.4684  -7.4105  -7.2494  -7.2052  -7.1782
    -7.1118  -6.8818  -6.8644  -6.7451  -6.6583  -6.4670  -6.2938  -6.2066
    -6.0707  -6.0103  -5.8614  -5.7582  -5.2990  -5.1509  -5.0787  -5.0313
    -5.0138  -4.9470  -4.1533  -4.1212  -3.9383  -3.8712  -3.8397  -3.7926
    -2.5346  -2.4492  -2.3037  -2.2832  -1.4293  -1.0469  -0.6474  -0.3856
    -0.1456  -0.0396  -0.0281   0.0906   0.1620   0.1995   0.3534   0.4396
     0.6256   0.6656   0.7801   0.8024   0.8295   0.9429   1.0413   1.1890
     1.2930   1.3937   1.5776   1.6997   1.7110   1.7960   1.8265   1.9241
     2.1090   2.1477   2.2168   2.3019   2.5206   2.5335   2.5937   2.6098
     2.7087   2.7530   2.8131   2.8610   3.0477   3.0520   3.1001   3.1423
     3.1513   3.1785   3.5864   3.6256   3.6884   3.7224   3.7834   3.8146
     3.8527   3.8942   4.0742   4.1702   4.2543   4.3798   4.6207   4.6762
     5.1255   5.2106   5.4367   5.4469   5.5052   5.5622   5.5922   5.6057
     5.6565   5.6939   6.1681   6.1803   6.2229   6.2360   6.2684   6.3188
     6.3208   6.4097   6.4711   6.5716   6.6920   6.7205   6.8060   6.8469
     7.0749   7.1459   7.1706   7.2404   7.7731   7.8227   7.8392   7.8867
     7.9340   7.9397   7.9590   8.0126   8.0670   8.1755   8.2287   8.2511
     8.3345   8.3884   8.4327   8.5035   8.5847   8.6284   8.6424   8.6991
     8.8006   8.8457   8.8609   8.9295   9.0523   9.1057   9.1469   9.1961
     9.2108   9.2728   9.4057   9.4455   9.4797   9.5209   9.5345   9.5658
     9.5924   9.6528   9.6684   9.7437   9.7626   9.8147   9.8849   9.9808
    10.0318  10.1115  10.3169  10.4059  10.4850  10.5740  10.7013  10.7396
    10.7858  10.8255  10.8316  10.8484  10.8831  10.9053  10.9191  10.9593
    10.9971  11.0346  11.0635  11.0801  11.1316  11.2107  11.4196  11.4599
    11.4863  11.5278  11.6243  11.6609  11.7572  11.8276  11.8425  11.8929
    11.9097  11.9775  12.0520  12.0994  12.1907  12.2455  12.3188  12.3906
    12.3960  12.4310  12.4802  12.4974  12.5030  12.5547  12.6853  12.7388
    12.8179  12.8957  13.1069  13.1273  13.1655  13.1939  13.2443  13.3187
    13.3807  13.4101  13.4368  13.4558  13.5481  13.5953  13.6851  13.7410
    13.7503  13.8191  14.0516  14.1006  14.1379  14.2216  14.2558  14.2603
    14.3112  14.3218  14.3364  14.3659  14.5080  14.5575  14.7935  14.8012
    14.8548  14.8928  14.9042  14.9583  14.9695  15.0025  15.0332  15.0618
    15.0742  15.1266  15.1378  15.1852  15.3548  15.4099  15.4298  15.4461
    15.4720  15.4835  15.5559  15.6024  15.6045  15.6440  15.7032  15.7950
    16.0947  16.1042  16.1607  16.2091  16.2267  16.2880  16.2932  16.2981
    16.3296  16.3485  16.4626  16.5066  16.5744  16.5800  16.6939  16.7307
    16.7655  16.8202  16.8970  16.9448  16.9583  16.9865  17.0196  17.0303
    17.0901  17.1196  17.1373  17.1533  17.1655  17.2035  17.2083  17.2565
    17.2760  17.3306  17.5028  17.5364  17.5614  17.6085  17.6234  17.6293
    17.6679  17.6835  17.7505  17.8128  17.9112  17.9586  17.9814  18.0421
    18.0619  18.1056  18.1330  18.1784  18.1808  18.2617  18.3689  18.4384
    18.4507  18.4634  18.5038  18.5619  18.6960  18.7552  18.7771  18.7955
    18.8257  18.8362  18.8589  18.8985  18.9247  18.9399  18.9635  19.0019
    19.0444  19.0651  19.1020  19.1106  19.2433  19.2700  19.3153  19.3458
    19.4418  19.4506  19.4619  19.4905  19.5146  19.5251  19.5547  19.6131
    19.6301  19.6770  19.7393  19.7840  19.8984  19.9603  20.2066  20.2533
    20.2881  20.2994  20.3207  20.3473  20.4019  20.4183  20.4603  20.4767
    20.5064  20.5171  20.5551  20.6054  20.6215  20.6734  20.8783  20.8803
    20.9175  20.9531  20.9802  21.0084  21.0511  21.0685  21.1069  21.1340
    21.1578  21.2016  21.3738  21.4230  21.4361  21.4598  21.4934  21.5238
    21.5937  21.6267  21.6518  21.6987  21.7164  21.7712  21.7974  21.8208
    21.8498  21.8656  22.0111  22.0659  22.1114  22.1449  22.1715  22.2066
    22.2392  22.2502  22.2840  22.3201  22.3287  22.3787  22.5066  22.5439
    22.6665  22.7158  22.7207  22.7585  22.8084  22.8343  22.8711  22.8914
    22.9181  22.9465  22.9537  23.0042  23.0238  23.0867  23.1211  23.1577
    23.1658  23.2248  23.2706  23.3073  23.3344  23.3488  23.4160  23.4975
    23.5623  23.5866  23.6271  23.6329  23.6405  23.6441  23.6794  23.7074
    23.7633  23.8007  23.8042  23.8235  23.8509  23.8522  24.0770  24.1007
    24.1363  24.1723  24.1875  24.2613  24.2813  24.3005  24.3046  24.3708
    24.3921  24.4051  24.4481  24.4643  24.5060  24.5552  24.5688  24.6076
    24.6134  24.6251  24.6598  24.6637  24.7030  24.7711  24.7727  24.8522
    24.8573  24.8986  24.9050  24.9648  24.9804  24.9906  25.0068  25.0473
    25.1631  25.2486  25.2651  25.3184  25.4071  25.4170  25.4664  25.4881
    25.5501  25.5631  25.6010  25.6428  25.7217  25.7553  25.8365  25.8528
    25.8751  25.8839  25.9336  25.9611  26.0300  26.0713  26.1637  26.1783
    26.2156  26.2204  26.2327  26.2898  26.3262  26.3650  26.4041  26.4767
    26.4896  26.5202  26.7086  26.7770  26.8026  26.8427  26.9260  26.9443
    26.9785  27.0207  27.0291  27.0601  27.0779  27.0924  27.2163  27.2354
    27.2700  27.2902  27.3178  27.3235  27.3534  27.3804  27.3988  27.4144

     occupation numbers 
     1.0000   1.0000   1.0000   1.0000   1.0000   1.0000   1.0000   1.0000
     1.0000   1.0000   1.0000   1.0000   1.0000   1.0000   1.0000   1.0000
     1.0000   1.0000   1.0000   1.0000   1.0000   1.0000   1.0000   1.0000
     1.0000   1.0000   1.0000   1.0000   1.0000   1.0000   1.0000   1.0000
     1.0000   1.0000   1.0000   1.0000   1.0000   1.0000   1.0000   1.0000
     1.0000   1.0000   1.0000   1.0000   1.0000   1.0000   1.0000   1.0000
     1.0000   1.0000   1.0000   1.0000   1.0000   1.0000   1.0000   1.0000
     1.0000   1.0000   1.0000   1.0000   1.0000   1.0000   1.0000   1.0000
     1.0000   1.0000   1.0000   1.0000   0.0000   0.0000   0.0000   0.0000
     0.0000   0.0000   0.0000   0.0000   0.0000   0.0000   0.0000   0.0000
     0.0000   0.0000   0.0000   0.0000   0.0000   0.0000   0.0000   0.0000
     0.0000   0.0000   0.0000   0.0000   0.0000   0.0000   0.0000   0.0000
     0.0000   0.0000   0.0000   0.0000   0.0000   0.0000   0.0000   0.0000
     0.0000   0.0000   0.0000   0.0000   0.0000   0.0000   0.0000   0.0000
     0.0000   0.0000   0.0000   0.0000   0.0000   0.0000   0.0000   0.0000
     0.0000   0.0000   0.0000   0.0000   0.0000   0.0000   0.0000   0.0000
     0.0000   0.0000   0.0000   0.0000   0.0000   0.0000   0.0000   0.0000
     0.0000   0.0000   0.0000   0.0000   0.0000   0.0000   0.0000   0.0000
     0.0000   0.0000   0.0000   0.0000   0.0000   0.0000   0.0000   0.0000
     0.0000   0.0000   0.0000   0.0000   0.0000   0.0000   0.0000   0.0000
     0.0000   0.0000   0.0000   0.0000   0.0000   0.0000   0.0000   0.0000
     0.0000   0.0000   0.0000   0.0000   0.0000   0.0000   0.0000   0.0000
     0.0000   0.0000   0.0000   0.0000   0.0000   0.0000   0.0000   0.0000
     0.0000   0.0000   0.0000   0.0000   0.0000   0.0000   0.0000   0.0000
     0.0000   0.0000   0.0000   0.0000   0.0000   0.0000   0.0000   0.0000
     0.0000   0.0000   0.0000   0.0000   0.0000   0.0000   0.0000   0.0000
     0.0000   0.0000   0.0000   0.0000   0.0000   0.0000   0.0000   0.0000
     0.0000   0.0000   0.0000   0.0000   0.0000   0.0000   0.0000   0.0000
     0.0000   0.0000   0.0000   0.0000   0.0000   0.0000   0.0000   0.0000
     0.0000   0.0000   0.0000   0.0000   0.0000   0.0000   0.0000   0.0000
     0.0000   0.0000   0.0000   0.0000   0.0000   0.0000   0.0000   0.0000
     0.0000   0.0000   0.0000   0.0000   0.0000   0.0000   0.0000   0.0000
     0.0000   0.0000   0.0000   0.0000   0.0000   0.0000   0.0000   0.0000
     0.0000   0.0000   0.0000   0.0000   0.0000   0.0000   0.0000   0.0000
     0.0000   0.0000   0.0000   0.0000   0.0000   0.0000   0.0000   0.0000
     0.0000   0.0000   0.0000   0.0000   0.0000   0.0000   0.0000   0.0000
     0.0000   0.0000   0.0000   0.0000   0.0000   0.0000   0.0000   0.0000
     0.0000   0.0000   0.0000   0.0000   0.0000   0.0000   0.0000   0.0000
     0.0000   0.0000   0.0000   0.0000   0.0000   0.0000   0.0000   0.0000
     0.0000   0.0000   0.0000   0.0000   0.0000   0.0000   0.0000   0.0000
     0.0000   0.0000   0.0000   0.0000   0.0000   0.0000   0.0000   0.0000
     0.0000   0.0000   0.0000   0.0000   0.0000   0.0000   0.0000   0.0000
     0.0000   0.0000   0.0000   0.0000   0.0000   0.0000   0.0000   0.0000
     0.0000   0.0000   0.0000   0.0000   0.0000   0.0000   0.0000   0.0000
     0.0000   0.0000   0.0000   0.0000   0.0000   0.0000   0.0000   0.0000
     0.0000   0.0000   0.0000   0.0000   0.0000   0.0000   0.0000   0.0000
     0.0000   0.0000   0.0000   0.0000   0.0000   0.0000   0.0000   0.0000
     0.0000   0.0000   0.0000   0.0000   0.0000   0.0000   0.0000   0.0000
     0.0000   0.0000   0.0000   0.0000   0.0000   0.0000   0.0000   0.0000
     0.0000   0.0000   0.0000   0.0000   0.0000   0.0000   0.0000   0.0000
     0.0000   0.0000   0.0000   0.0000   0.0000   0.0000   0.0000   0.0000
     0.0000   0.0000   0.0000   0.0000   0.0000   0.0000   0.0000   0.0000
     0.0000   0.0000   0.0000   0.0000   0.0000   0.0000   0.0000   0.0000
     0.0000   0.0000   0.0000   0.0000   0.0000   0.0000   0.0000   0.0000
     0.0000   0.0000   0.0000   0.0000   0.0000   0.0000   0.0000   0.0000
     0.0000   0.0000   0.0000   0.0000   0.0000   0.0000   0.0000   0.0000
     0.0000   0.0000   0.0000   0.0000   0.0000   0.0000   0.0000   0.0000
     0.0000   0.0000   0.0000   0.0000   0.0000   0.0000   0.0000   0.0000
     0.0000   0.0000   0.0000   0.0000   0.0000   0.0000   0.0000   0.0000
     0.0000   0.0000   0.0000   0.0000   0.0000   0.0000   0.0000   0.0000
     0.0000   0.0000   0.0000   0.0000   0.0000   0.0000   0.0000   0.0000
     0.0000   0.0000   0.0000   0.0000   0.0000   0.0000   0.0000   0.0000
     0.0000   0.0000   0.0000   0.0000   0.0000   0.0000   0.0000   0.0000
     0.0000   0.0000   0.0000   0.0000   0.0000   0.0000   0.0000   0.0000
     0.0000   0.0000   0.0000   0.0000   0.0000   0.0000   0.0000   0.0000
     0.0000   0.0000   0.0000   0.0000   0.0000   0.0000   0.0000   0.0000
     0.0000   0.0000   0.0000   0.0000   0.0000   0.0000   0.0000   0.0000
     0.0000   0.0000   0.0000   0.0000   0.0000   0.0000   0.0000   0.0000
     0.0000   0.0000   0.0000   0.0000   0.0000   0.0000   0.0000   0.0000
     0.0000   0.0000   0.0000   0.0000   0.0000   0.0000   0.0000   0.0000
     0.0000   0.0000   0.0000   0.0000   0.0000   0.0000   0.0000   0.0000
     0.0000   0.0000   0.0000   0.0000   0.0000   0.0000   0.0000   0.0000
     0.0000   0.0000   0.0000   0.0000   0.0000   0.0000   0.0000   0.0000
     0.0000   0.0000   0.0000   0.0000   0.0000   0.0000   0.0000   0.0000
     0.0000   0.0000   0.0000   0.0000   0.0000   0.0000   0.0000   0.0000

          k = 0.3333-0.0000 0.0000 ( 59517 PWs)   bands (ev):

   -73.4619 -73.4615 -71.3727 -71.3723 -47.5884 -47.5858 -47.2964 -47.2956
   -46.9694 -46.9665 -45.3661 -45.3630 -45.0706 -45.0695 -44.8938 -44.8903
   -18.3116 -18.2861 -17.8354 -17.7626 -17.6752 -17.6675 -17.6233 -17.6131
   -17.5603 -17.5358 -17.3877 -17.3596 -11.6541 -11.6107 -11.3140 -11.2421
   -10.1649 -10.0349  -9.8212  -9.6922  -9.3616  -9.3414  -9.2508  -9.2330
    -8.9568  -8.8837  -8.4760  -8.4010  -8.0262  -7.9335  -7.9051  -7.8225
    -7.6878  -7.6544  -7.5510  -7.5269  -7.4455  -7.3246  -7.2551  -7.1823
    -6.9471  -6.8688  -6.8152  -6.6306  -6.6094  -6.4578  -6.3590  -6.1788
    -6.0452  -6.0251  -5.9750  -5.4673  -5.2551  -5.1466  -5.1193  -5.0624
    -4.9913  -4.9609  -4.1304  -4.0880  -3.9837  -3.8558  -3.8405  -3.8040
    -2.5409  -2.4292  -2.3327  -2.2553  -1.3130  -0.9288  -0.8552  -0.5888
    -0.2797  -0.1455  -0.0009   0.1427   0.2706   0.2917   0.3371   0.4235
     0.5470   0.6485   0.6850   0.8328   1.1012   1.1952   1.2588   1.3594
     1.3632   1.4083   1.4881   1.5353   1.6000   1.6194   1.7804   1.8797
     2.1254   2.1678   2.2140   2.2478   2.3483   2.4192   2.4832   2.6726
     2.7860   2.8586   3.0267   3.0742   3.1122   3.1534   3.3906   3.4421
     3.4626   3.4848   3.5347   3.5730   3.6994   3.7446   3.7865   3.8855
     4.1185   4.1317   4.1731   4.2770   4.5289   4.5922   4.6891   4.8168
     5.0198   5.1106   5.1197   5.2263   5.2490   5.3205   5.4284   5.5114
     5.5587   5.6148   5.8128   5.8401   5.8731   5.8892   6.0196   6.0587
     6.2205   6.2724   6.3383   6.4008   6.4102   6.4740   7.0756   7.1487
     7.1522   7.1997   7.2864   7.3020   7.3101   7.3771   7.4193   7.4909
     7.6734   7.7145   7.7618   7.7844   7.7983   7.8329   8.0109   8.1005
     8.2304   8.3164   8.3947   8.4662   8.6314   8.6998   8.7325   8.8062
     8.8164   8.8512   9.0882   9.1191   9.1240   9.1381   9.2161   9.2929
     9.3293   9.3724   9.5584   9.5861   9.6145   9.6420   9.6777   9.6898
     9.7907   9.8229   9.9137   9.9669   9.9902  10.0214  10.0721  10.1065
    10.1940  10.2492  10.2900  10.3032  10.3354  10.3710  10.3997  10.4751
    10.5895  10.7168  10.7954  10.8658  10.9056  10.9414  11.0293  11.0874
    11.0922  11.1246  11.1420  11.1777  11.1931  11.2088  11.2356  11.2607
    11.4118  11.4468  11.5304  11.6328  11.7929  11.8349  11.8555  11.9277
    11.9381  11.9578  12.0011  12.0390  12.0540  12.0659  12.3125  12.3672
    12.6863  12.7282  12.7363  12.7544  12.7952  12.8071  12.8688  12.9236
    13.0517  13.1012  13.1235  13.1584  13.1940  13.2234  13.2909  13.3545
    13.7781  13.7870  13.8509  13.8584  13.9535  13.9672  14.0133  14.0230
    14.0471  14.0906  14.1157  14.1269  14.1608  14.2144  14.3674  14.4076
    14.4289  14.4615  14.4936  14.5258  14.6005  14.6457  14.6585  14.6843
    14.7058  14.7760  14.8044  14.8383  14.8807  14.9095  14.9402  14.9836
    14.9997  15.0468  15.0525  15.1706  15.2111  15.2423  15.2854  15.3136
    15.3824  15.4214  15.6340  15.6901  15.6996  15.7508  15.7813  15.8175
    15.8433  15.8615  15.9054  15.9768  16.0509  16.0948  16.1232  16.1509
    16.2002  16.2451  16.2940  16.3099  16.3432  16.3733  16.4354  16.4691
    16.4884  16.5051  16.6181  16.6849  16.8382  16.8809  16.9072  16.9388
    16.9734  16.9893  17.0721  17.0751  17.1881  17.2070  17.2535  17.2680
    17.3240  17.3634  17.4512  17.4800  17.5033  17.5267  17.5913  17.6378
    17.6502  17.7322  17.7488  17.7690  17.8951  17.9514  18.1420  18.1749
    18.1925  18.2231  18.3197  18.3531  18.3843  18.4004  18.4864  18.5207
    18.5241  18.5445  18.5514  18.5599  18.6037  18.6119  18.6810  18.6875
    18.7369  18.7422  18.7738  18.8242  18.8873  18.9401  19.0525  19.0828
    19.1319  19.1559  19.1611  19.2130  19.2306  19.2664  19.3433  19.3781
    19.4540  19.4776  19.5091  19.5127  19.5855  19.6610  19.9226  19.9977
    20.0718  20.0849  20.1196  20.1237  20.1611  20.1906  20.2081  20.2489
    20.3684  20.4089  20.4261  20.4586  20.4684  20.4880  20.5115  20.5334
    20.5416  20.5801  20.6059  20.6368  20.6799  20.7339  20.8914  20.9421
    20.9541  20.9897  21.0771  21.1127  21.1441  21.1664  21.1682  21.2199
    21.2259  21.3149  21.3308  21.3756  21.3927  21.4490  21.5280  21.5387
    21.5529  21.5864  21.6135  21.6233  21.6518  21.7141  21.7279  21.7703
    21.8266  21.8453  21.8534  21.8893  21.9166  21.9592  22.0304  22.0904
    22.1354  22.1465  22.1753  22.2109  22.3388  22.3712  22.3975  22.4184
    22.4306  22.4655  22.4862  22.5415  22.5710  22.5818  22.6224  22.6450
    22.6912  22.7167  22.8109  22.8415  22.8991  22.9076  22.9680  22.9749
    23.0343  23.0931  23.1231  23.1640  23.1990  23.2078  23.2486  23.2960
    23.4317  23.4713  23.4890  23.5402  23.6828  23.6903  23.7405  23.7719
    23.8635  23.8742  23.9246  23.9391  23.9478  23.9784  24.0133  24.0641
    24.0823  24.0887  24.1276  24.1624  24.1745  24.1922  24.2325  24.2578
    24.2843  24.3295  24.3637  24.4001  24.6109  24.6973  24.7143  24.7562
    24.7611  24.8039  24.8270  24.8568  24.8872  24.9153  24.9245  24.9469
    24.9762  24.9984  25.1133  25.1478  25.1848  25.2470  25.3244  25.3943
    25.3980  25.4213  25.4731  25.4779  25.5025  25.5208  25.5296  25.6130
    25.6706  25.7326  25.7445  25.7923  25.8077  25.8371  25.8639  25.8903
    25.9215  25.9661  26.0108  26.0528  26.0637  26.1104  26.1491  26.1754
    26.1839  26.2318  26.2907  26.3360  26.4029  26.4403  26.4742  26.5082
    26.5211  26.5752  26.5830  26.6202  26.8001  26.8275  26.8475  26.8534
    26.8876  26.8905  26.9607  27.0132  27.0397  27.0650  27.1182  27.1379
    27.1525  27.2156  27.2392  27.2886  27.2970  27.3196  27.3493  27.3634

     occupation numbers 
     1.0000   1.0000   1.0000   1.0000   1.0000   1.0000   1.0000   1.0000
     1.0000   1.0000   1.0000   1.0000   1.0000   1.0000   1.0000   1.0000
     1.0000   1.0000   1.0000   1.0000   1.0000   1.0000   1.0000   1.0000
     1.0000   1.0000   1.0000   1.0000   1.0000   1.0000   1.0000   1.0000
     1.0000   1.0000   1.0000   1.0000   1.0000   1.0000   1.0000   1.0000
     1.0000   1.0000   1.0000   1.0000   1.0000   1.0000   1.0000   1.0000
     1.0000   1.0000   1.0000   1.0000   1.0000   1.0000   1.0000   1.0000
     1.0000   1.0000   1.0000   1.0000   1.0000   1.0000   1.0000   1.0000
     1.0000   1.0000   1.0000   1.0000   0.0000   0.0000   0.0000   0.0000
     0.0000   0.0000   0.0000   0.0000   0.0000   0.0000   0.0000   0.0000
     0.0000   0.0000   0.0000   0.0000   0.0000   0.0000   0.0000   0.0000
     0.0000   0.0000   0.0000   0.0000   0.0000   0.0000   0.0000   0.0000
     0.0000   0.0000   0.0000   0.0000   0.0000   0.0000   0.0000   0.0000
     0.0000   0.0000   0.0000   0.0000   0.0000   0.0000   0.0000   0.0000
     0.0000   0.0000   0.0000   0.0000   0.0000   0.0000   0.0000   0.0000
     0.0000   0.0000   0.0000   0.0000   0.0000   0.0000   0.0000   0.0000
     0.0000   0.0000   0.0000   0.0000   0.0000   0.0000   0.0000   0.0000
     0.0000   0.0000   0.0000   0.0000   0.0000   0.0000   0.0000   0.0000
     0.0000   0.0000   0.0000   0.0000   0.0000   0.0000   0.0000   0.0000
     0.0000   0.0000   0.0000   0.0000   0.0000   0.0000   0.0000   0.0000
     0.0000   0.0000   0.0000   0.0000   0.0000   0.0000   0.0000   0.0000
     0.0000   0.0000   0.0000   0.0000   0.0000   0.0000   0.0000   0.0000
     0.0000   0.0000   0.0000   0.0000   0.0000   0.0000   0.0000   0.0000
     0.0000   0.0000   0.0000   0.0000   0.0000   0.0000   0.0000   0.0000
     0.0000   0.0000   0.0000   0.0000   0.0000   0.0000   0.0000   0.0000
     0.0000   0.0000   0.0000   0.0000   0.0000   0.0000   0.0000   0.0000
     0.0000   0.0000   0.0000   0.0000   0.0000   0.0000   0.0000   0.0000
     0.0000   0.0000   0.0000   0.0000   0.0000   0.0000   0.0000   0.0000
     0.0000   0.0000   0.0000   0.0000   0.0000   0.0000   0.0000   0.0000
     0.0000   0.0000   0.0000   0.0000   0.0000   0.0000   0.0000   0.0000
     0.0000   0.0000   0.0000   0.0000   0.0000   0.0000   0.0000   0.0000
     0.0000   0.0000   0.0000   0.0000   0.0000   0.0000   0.0000   0.0000
     0.0000   0.0000   0.0000   0.0000   0.0000   0.0000   0.0000   0.0000
     0.0000   0.0000   0.0000   0.0000   0.0000   0.0000   0.0000   0.0000
     0.0000   0.0000   0.0000   0.0000   0.0000   0.0000   0.0000   0.0000
     0.0000   0.0000   0.0000   0.0000   0.0000   0.0000   0.0000   0.0000
     0.0000   0.0000   0.0000   0.0000   0.0000   0.0000   0.0000   0.0000
     0.0000   0.0000   0.0000   0.0000   0.0000   0.0000   0.0000   0.0000
     0.0000   0.0000   0.0000   0.0000   0.0000   0.0000   0.0000   0.0000
     0.0000   0.0000   0.0000   0.0000   0.0000   0.0000   0.0000   0.0000
     0.0000   0.0000   0.0000   0.0000   0.0000   0.0000   0.0000   0.0000
     0.0000   0.0000   0.0000   0.0000   0.0000   0.0000   0.0000   0.0000
     0.0000   0.0000   0.0000   0.0000   0.0000   0.0000   0.0000   0.0000
     0.0000   0.0000   0.0000   0.0000   0.0000   0.0000   0.0000   0.0000
     0.0000   0.0000   0.0000   0.0000   0.0000   0.0000   0.0000   0.0000
     0.0000   0.0000   0.0000   0.0000   0.0000   0.0000   0.0000   0.0000
     0.0000   0.0000   0.0000   0.0000   0.0000   0.0000   0.0000   0.0000
     0.0000   0.0000   0.0000   0.0000   0.0000   0.0000   0.0000   0.0000
     0.0000   0.0000   0.0000   0.0000   0.0000   0.0000   0.0000   0.0000
     0.0000   0.0000   0.0000   0.0000   0.0000   0.0000   0.0000   0.0000
     0.0000   0.0000   0.0000   0.0000   0.0000   0.0000   0.0000   0.0000
     0.0000   0.0000   0.0000   0.0000   0.0000   0.0000   0.0000   0.0000
     0.0000   0.0000   0.0000   0.0000   0.0000   0.0000   0.0000   0.0000
     0.0000   0.0000   0.0000   0.0000   0.0000   0.0000   0.0000   0.0000
     0.0000   0.0000   0.0000   0.0000   0.0000   0.0000   0.0000   0.0000
     0.0000   0.0000   0.0000   0.0000   0.0000   0.0000   0.0000   0.0000
     0.0000   0.0000   0.0000   0.0000   0.0000   0.0000   0.0000   0.0000
     0.0000   0.0000   0.0000   0.0000   0.0000   0.0000   0.0000   0.0000
     0.0000   0.0000   0.0000   0.0000   0.0000   0.0000   0.0000   0.0000
     0.0000   0.0000   0.0000   0.0000   0.0000   0.0000   0.0000   0.0000
     0.0000   0.0000   0.0000   0.0000   0.0000   0.0000   0.0000   0.0000
     0.0000   0.0000   0.0000   0.0000   0.0000   0.0000   0.0000   0.0000
     0.0000   0.0000   0.0000   0.0000   0.0000   0.0000   0.0000   0.0000
     0.0000   0.0000   0.0000   0.0000   0.0000   0.0000   0.0000   0.0000
     0.0000   0.0000   0.0000   0.0000   0.0000   0.0000   0.0000   0.0000
     0.0000   0.0000   0.0000   0.0000   0.0000   0.0000   0.0000   0.0000
     0.0000   0.0000   0.0000   0.0000   0.0000   0.0000   0.0000   0.0000
     0.0000   0.0000   0.0000   0.0000   0.0000   0.0000   0.0000   0.0000
     0.0000   0.0000   0.0000   0.0000   0.0000   0.0000   0.0000   0.0000
     0.0000   0.0000   0.0000   0.0000   0.0000   0.0000   0.0000   0.0000
     0.0000   0.0000   0.0000   0.0000   0.0000   0.0000   0.0000   0.0000
     0.0000   0.0000   0.0000   0.0000   0.0000   0.0000   0.0000   0.0000
     0.0000   0.0000   0.0000   0.0000   0.0000   0.0000   0.0000   0.0000
     0.0000   0.0000   0.0000   0.0000   0.0000   0.0000   0.0000   0.0000
     0.0000   0.0000   0.0000   0.0000   0.0000   0.0000   0.0000   0.0000

          k =-0.5000-0.2887 0.0000 ( 59450 PWs)   bands (ev):

   -73.4619 -73.4616 -71.3727 -71.3723 -47.5877 -47.5864 -47.2962 -47.2957
   -46.9687 -46.9672 -45.3654 -45.3638 -45.0703 -45.0698 -44.8930 -44.8912
   -18.1049 -18.0628 -17.9001 -17.8859 -17.7640 -17.7003 -17.6908 -17.6118
   -17.5565 -17.5520 -17.5096 -17.3778 -11.6875 -11.5850 -11.4042 -11.2255
   -10.2153 -10.0956  -9.6695  -9.5562  -9.5153  -9.4775  -8.9446  -8.8637
    -8.7176  -8.4901  -8.4166  -8.3753  -8.2328  -8.1640  -8.0991  -8.0730
    -7.6511  -7.5925  -7.5582  -7.4783  -7.3505  -7.1861  -7.1554  -7.0775
    -6.9494  -6.8267  -6.7501  -6.6992  -6.6888  -6.5846  -6.3661  -6.1970
    -6.0890  -6.0038  -5.9431  -5.9216  -5.3622  -5.2129  -5.0224  -5.0023
    -4.9826  -4.9204  -4.1978  -4.1854  -3.9169  -3.8746  -3.8405  -3.7636
    -2.5622  -2.3357  -2.3287  -2.2937  -1.6174  -1.2470  -0.4673  -0.4073
    -0.3546   0.0101   0.0510   0.1638   0.2206   0.3173   0.3661   0.4214
     0.4247   0.4841   0.5018   0.5588   0.6110   0.6462   1.1542   1.2400
     1.3032   1.4210   1.6446   1.6689   1.7441   1.7627   1.7961   1.9066
     2.1027   2.1139   2.2248   2.2383   2.2603   2.4347   2.4599   2.5049
     2.6312   2.7024   2.7444   2.8206   2.8292   2.8490   2.9492   2.9842
     3.0049   3.0738   3.4372   3.4983   3.5149   3.5688   3.8160   3.8456
     3.8933   3.9959   4.3803   4.5190   4.9118   4.9891   5.0170   5.0255
     5.0507   5.0537   5.7032   5.7406   5.7845   5.8353   5.9408   5.9415
     5.9867   5.9873   6.0354   6.0425   6.2501   6.3533   6.3555   6.4091
     6.5199   6.6021   6.6095   6.6977   6.7807   6.8121   7.3555   7.3606
     7.3754   7.4171   7.4254   7.4324   7.4837   7.5019   7.7273   7.7984
     7.8066   7.8128   7.8595   7.8649   7.9116   7.9643   8.1014   8.1765
     8.1801   8.2197   8.2938   8.4192   8.5667   8.6108   8.6391   8.6850
     8.8553   8.9330   8.9347   9.0304   9.1334   9.2025   9.2045   9.2582
     9.2986   9.3536   9.4258   9.4685   9.5747   9.6406   9.6764   9.6829
     9.7315   9.8461   9.8549   9.8980  10.0234  10.0995  10.1151  10.1417
    10.1654  10.2236  10.3291  10.3623  10.3896  10.4018  10.4052  10.4661
    10.5067  10.5202  10.5220  10.5926  10.7460  10.7792  10.8168  10.8917
    11.1225  11.1406  11.1798  11.1989  11.3058  11.3286  11.3433  11.4019
    11.4103  11.4134  11.4515  11.4616  11.5378  11.6199  11.7142  11.7474
    11.7761  11.7964  11.8322  11.8753  12.0288  12.0601  12.0929  12.1222
    12.2030  12.2430  12.3355  12.3709  12.8300  12.8429  12.8546  12.8899
    12.9016  12.9104  12.9269  12.9274  12.9952  13.0306  13.0431  13.0694
    13.2372  13.3563  13.3782  13.4886  13.7384  13.7851  13.8237  13.8459
    13.8579  13.9167  14.1129  14.1241  14.1579  14.1581  14.1919  14.1990
    14.2310  14.2688  14.2892  14.3514  14.4963  14.5014  14.5439  14.5589
    14.5647  14.6075  14.6691  14.7155  14.9467  14.9854  15.0119  15.0415
    15.0693  15.1027  15.2110  15.2217  15.2462  15.2618  15.3509  15.4613
    15.4746  15.5111  15.5475  15.5513  15.6900  15.7456  15.8695  15.9110
    15.9414  15.9484  16.0170  16.0206  16.0739  16.1196  16.1484  16.2137
    16.2154  16.2421  16.2709  16.2754  16.3160  16.3264  16.3951  16.4367
    16.6831  16.7219  16.7731  16.8137  16.9431  16.9704  17.0165  17.0595
    17.0906  17.0920  17.1188  17.1335  17.1920  17.2230  17.2487  17.3109
    17.3369  17.4219  17.5288  17.5497  17.5610  17.6393  17.6528  17.6809
    17.7013  17.7979  17.8125  17.8428  17.8710  17.8738  17.9060  17.9185
    18.0821  18.1567  18.1685  18.2679  18.3540  18.3844  18.4094  18.4475
    18.4712  18.5019  18.7083  18.7503  18.7657  18.7775  18.8813  18.9343
    18.9693  18.9911  18.9926  19.0289  19.0507  19.0573  19.0931  19.1060
    19.1496  19.1897  19.2577  19.3224  19.4004  19.4095  19.4314  19.4422
    19.4442  19.4973  19.5239  19.5717  19.6269  19.6742  19.6830  19.6897
    19.7372  19.7659  19.8387  19.9084  19.9802  19.9851  19.9908  20.0360
    20.0370  20.0738  20.1138  20.1696  20.2856  20.3116  20.3360  20.3429
    20.3463  20.3568  20.3968  20.4160  20.6108  20.6543  20.6647  20.7188
    20.8394  20.8874  20.9016  20.9264  20.9542  20.9588  21.0761  21.1470
    21.2599  21.3161  21.3739  21.4546  21.4798  21.5324  21.5564  21.5861
    21.6860  21.7689  21.8715  21.9451  21.9746  22.0000  22.0636  22.0852
    22.1132  22.1402  22.1447  22.1629  22.1828  22.2197  22.2569  22.2930
    22.3103  22.3704  22.3885  22.3901  22.4149  22.4266  22.4274  22.4386
    22.4774  22.4834  22.4951  22.5418  22.6005  22.6262  22.6393  22.6712
    22.9891  23.0254  23.0617  23.0681  23.0832  23.0969  23.1177  23.1386
    23.1425  23.1474  23.1622  23.1771  23.2634  23.2730  23.2849  23.2930
    23.3064  23.3154  23.3193  23.3561  23.3836  23.4247  23.4594  23.5020
    23.5212  23.5705  23.5990  23.6425  23.7301  23.7660  23.8197  23.8790
    23.8897  23.8908  23.9327  23.9507  24.1812  24.1966  24.2432  24.2538
    24.3128  24.3515  24.3648  24.4295  24.5801  24.5962  24.7502  24.7509
    24.7979  24.8208  24.9239  24.9806  25.0271  25.1187  25.1419  25.1580
    25.1867  25.2330  25.2604  25.2879  25.3763  25.4715  25.4998  25.5216
    25.5369  25.5547  25.5918  25.6442  25.6858  25.7094  25.7437  25.7732
    25.8315  25.8783  25.8977  25.9239  25.9668  26.0062  26.1133  26.1614
    26.1656  26.1914  26.2282  26.2511  26.2886  26.2922  26.3706  26.3814
    26.4039  26.4289  26.4750  26.4967  26.5451  26.5657  26.6420  26.6459
    26.6642  26.7009  26.7356  26.7806  26.8221  26.8226  26.8774  26.8901
    26.9207  26.9334  26.9882  27.0699  27.1657  27.1932  27.2199  27.2310
    27.2646  27.2727  27.3172  27.3477  27.5736  27.6059  27.6118  27.6304

     occupation numbers 
     1.0000   1.0000   1.0000   1.0000   1.0000   1.0000   1.0000   1.0000
     1.0000   1.0000   1.0000   1.0000   1.0000   1.0000   1.0000   1.0000
     1.0000   1.0000   1.0000   1.0000   1.0000   1.0000   1.0000   1.0000
     1.0000   1.0000   1.0000   1.0000   1.0000   1.0000   1.0000   1.0000
     1.0000   1.0000   1.0000   1.0000   1.0000   1.0000   1.0000   1.0000
     1.0000   1.0000   1.0000   1.0000   1.0000   1.0000   1.0000   1.0000
     1.0000   1.0000   1.0000   1.0000   1.0000   1.0000   1.0000   1.0000
     1.0000   1.0000   1.0000   1.0000   1.0000   1.0000   1.0000   1.0000
     1.0000   1.0000   1.0000   1.0000   0.0000   0.0000   0.0000   0.0000
     0.0000   0.0000   0.0000   0.0000   0.0000   0.0000   0.0000   0.0000
     0.0000   0.0000   0.0000   0.0000   0.0000   0.0000   0.0000   0.0000
     0.0000   0.0000   0.0000   0.0000   0.0000   0.0000   0.0000   0.0000
     0.0000   0.0000   0.0000   0.0000   0.0000   0.0000   0.0000   0.0000
     0.0000   0.0000   0.0000   0.0000   0.0000   0.0000   0.0000   0.0000
     0.0000   0.0000   0.0000   0.0000   0.0000   0.0000   0.0000   0.0000
     0.0000   0.0000   0.0000   0.0000   0.0000   0.0000   0.0000   0.0000
     0.0000   0.0000   0.0000   0.0000   0.0000   0.0000   0.0000   0.0000
     0.0000   0.0000   0.0000   0.0000   0.0000   0.0000   0.0000   0.0000
     0.0000   0.0000   0.0000   0.0000   0.0000   0.0000   0.0000   0.0000
     0.0000   0.0000   0.0000   0.0000   0.0000   0.0000   0.0000   0.0000
     0.0000   0.0000   0.0000   0.0000   0.0000   0.0000   0.0000   0.0000
     0.0000   0.0000   0.0000   0.0000   0.0000   0.0000   0.0000   0.0000
     0.0000   0.0000   0.0000   0.0000   0.0000   0.0000   0.0000   0.0000
     0.0000   0.0000   0.0000   0.0000   0.0000   0.0000   0.0000   0.0000
     0.0000   0.0000   0.0000   0.0000   0.0000   0.0000   0.0000   0.0000
     0.0000   0.0000   0.0000   0.0000   0.0000   0.0000   0.0000   0.0000
     0.0000   0.0000   0.0000   0.0000   0.0000   0.0000   0.0000   0.0000
     0.0000   0.0000   0.0000   0.0000   0.0000   0.0000   0.0000   0.0000
     0.0000   0.0000   0.0000   0.0000   0.0000   0.0000   0.0000   0.0000
     0.0000   0.0000   0.0000   0.0000   0.0000   0.0000   0.0000   0.0000
     0.0000   0.0000   0.0000   0.0000   0.0000   0.0000   0.0000   0.0000
     0.0000   0.0000   0.0000   0.0000   0.0000   0.0000   0.0000   0.0000
     0.0000   0.0000   0.0000   0.0000   0.0000   0.0000   0.0000   0.0000
     0.0000   0.0000   0.0000   0.0000   0.0000   0.0000   0.0000   0.0000
     0.0000   0.0000   0.0000   0.0000   0.0000   0.0000   0.0000   0.0000
     0.0000   0.0000   0.0000   0.0000   0.0000   0.0000   0.0000   0.0000
     0.0000   0.0000   0.0000   0.0000   0.0000   0.0000   0.0000   0.0000
     0.0000   0.0000   0.0000   0.0000   0.0000   0.0000   0.0000   0.0000
     0.0000   0.0000   0.0000   0.0000   0.0000   0.0000   0.0000   0.0000
     0.0000   0.0000   0.0000   0.0000   0.0000   0.0000   0.0000   0.0000
     0.0000   0.0000   0.0000   0.0000   0.0000   0.0000   0.0000   0.0000
     0.0000   0.0000   0.0000   0.0000   0.0000   0.0000   0.0000   0.0000
     0.0000   0.0000   0.0000   0.0000   0.0000   0.0000   0.0000   0.0000
     0.0000   0.0000   0.0000   0.0000   0.0000   0.0000   0.0000   0.0000
     0.0000   0.0000   0.0000   0.0000   0.0000   0.0000   0.0000   0.0000
     0.0000   0.0000   0.0000   0.0000   0.0000   0.0000   0.0000   0.0000
     0.0000   0.0000   0.0000   0.0000   0.0000   0.0000   0.0000   0.0000
     0.0000   0.0000   0.0000   0.0000   0.0000   0.0000   0.0000   0.0000
     0.0000   0.0000   0.0000   0.0000   0.0000   0.0000   0.0000   0.0000
     0.0000   0.0000   0.0000   0.0000   0.0000   0.0000   0.0000   0.0000
     0.0000   0.0000   0.0000   0.0000   0.0000   0.0000   0.0000   0.0000
     0.0000   0.0000   0.0000   0.0000   0.0000   0.0000   0.0000   0.0000
     0.0000   0.0000   0.0000   0.0000   0.0000   0.0000   0.0000   0.0000
     0.0000   0.0000   0.0000   0.0000   0.0000   0.0000   0.0000   0.0000
     0.0000   0.0000   0.0000   0.0000   0.0000   0.0000   0.0000   0.0000
     0.0000   0.0000   0.0000   0.0000   0.0000   0.0000   0.0000   0.0000
     0.0000   0.0000   0.0000   0.0000   0.0000   0.0000   0.0000   0.0000
     0.0000   0.0000   0.0000   0.0000   0.0000   0.0000   0.0000   0.0000
     0.0000   0.0000   0.0000   0.0000   0.0000   0.0000   0.0000   0.0000
     0.0000   0.0000   0.0000   0.0000   0.0000   0.0000   0.0000   0.0000
     0.0000   0.0000   0.0000   0.0000   0.0000   0.0000   0.0000   0.0000
     0.0000   0.0000   0.0000   0.0000   0.0000   0.0000   0.0000   0.0000
     0.0000   0.0000   0.0000   0.0000   0.0000   0.0000   0.0000   0.0000
     0.0000   0.0000   0.0000   0.0000   0.0000   0.0000   0.0000   0.0000
     0.0000   0.0000   0.0000   0.0000   0.0000   0.0000   0.0000   0.0000
     0.0000   0.0000   0.0000   0.0000   0.0000   0.0000   0.0000   0.0000
     0.0000   0.0000   0.0000   0.0000   0.0000   0.0000   0.0000   0.0000
     0.0000   0.0000   0.0000   0.0000   0.0000   0.0000   0.0000   0.0000
     0.0000   0.0000   0.0000   0.0000   0.0000   0.0000   0.0000   0.0000
     0.0000   0.0000   0.0000   0.0000   0.0000   0.0000   0.0000   0.0000
     0.0000   0.0000   0.0000   0.0000   0.0000   0.0000   0.0000   0.0000
     0.0000   0.0000   0.0000   0.0000   0.0000   0.0000   0.0000   0.0000
     0.0000   0.0000   0.0000   0.0000   0.0000   0.0000   0.0000   0.0000
     0.0000   0.0000   0.0000   0.0000   0.0000   0.0000   0.0000   0.0000
     0.0000   0.0000   0.0000   0.0000   0.0000   0.0000   0.0000   0.0000

          k =-0.5000-0.0962 0.0000 ( 59462 PWs)   bands (ev):

   -73.4619 -73.4615 -71.3727 -71.3723 -47.5877 -47.5864 -47.2962 -47.2957
   -46.9687 -46.9672 -45.3654 -45.3638 -45.0703 -45.0698 -44.8930 -44.8912
   -18.1284 -18.0944 -17.8460 -17.8081 -17.7745 -17.7060 -17.6694 -17.6354
   -17.6024 -17.5936 -17.4737 -17.3874 -11.6752 -11.5856 -11.4096 -11.2395
   -10.1114  -9.9817  -9.7448  -9.6101  -9.3858  -9.3593  -9.0927  -9.0149
    -8.8302  -8.7468  -8.4557  -8.3284  -8.2771  -8.1937  -8.0287  -7.8851
    -7.7895  -7.5917  -7.5054  -7.3895  -7.3259  -7.2502  -7.1550  -7.0419
    -6.9028  -6.8637  -6.7812  -6.6893  -6.6123  -6.4988  -6.4223  -6.3082
    -6.0628  -5.9662  -5.9098  -5.6740  -5.3020  -5.2029  -5.1255  -5.0181
    -4.9476  -4.9101  -4.1919  -4.1570  -4.0073  -3.8575  -3.8044  -3.7676
    -2.4934  -2.3715  -2.3228  -2.2759  -1.4770  -1.1191  -0.8658  -0.5222
    -0.3334  -0.2069  -0.1645  -0.0562   0.0434   0.1737   0.3646   0.4092
     0.4969   0.5550   0.6523   0.7254   0.7466   0.8775   0.9490   1.0605
     1.1444   1.2211   1.2792   1.3826   1.5731   1.6510   1.7032   1.7723
     1.8789   1.9818   2.0408   2.1183   2.2658   2.4124   2.5154   2.6043
     2.8008   2.8564   2.9320   3.0306   3.0492   3.1406   3.4288   3.4938
     3.6160   3.6691   3.6745   3.6880   3.7083   3.7952   4.1570   4.2106
     4.3425   4.4143   4.5919   4.6881   4.8877   4.9107   4.9883   5.0293
     5.3276   5.4023   5.4366   5.4835   5.6021   5.6636   5.6862   5.7396
     5.7833   5.8386   5.9782   6.0502   6.0660   6.1283   6.1390   6.2136
     6.3273   6.4307   6.4606   6.5377   6.7790   6.8572   6.9614   7.0114
     7.0309   7.0902   7.1129   7.1669   7.2723   7.3575   7.3998   7.4850
     7.5265   7.5816   7.6205   7.6818   7.7743   7.8226   7.9635   7.9945
     8.0478   8.1071   8.3667   8.4095   8.4833   8.5555   8.5868   8.6697
     8.8212   8.9101   9.0243   9.0464   9.0708   9.1149   9.1364   9.2102
     9.3255   9.3724   9.3784   9.4412   9.4840   9.5465   9.5596   9.6585
     9.6884   9.7994   9.8747   9.9350   9.9940  10.0384  10.1682  10.2144
    10.2960  10.3339  10.4195  10.5274  10.5475  10.5973  10.7544  10.8017
    10.8200  10.8696  10.9795  11.0139  11.0295  11.0945  11.1137  11.1707
    11.2041  11.2463  11.2989  11.3644  11.4341  11.4924  11.5450  11.5901
    11.6223  11.6335  11.6451  11.6688  11.6945  11.7271  11.8369  11.9519
    12.0439  12.0819  12.1067  12.1333  12.1588  12.2059  12.3499  12.3728
    12.4022  12.4172  12.4979  12.5806  12.6866  12.7612  12.7712  12.8636
    12.9711  13.0030  13.0217  13.0545  13.0685  13.1027  13.2248  13.2649
    13.3028  13.3201  13.3645  13.4141  13.4383  13.4742  13.4897  13.5351
    13.5979  13.6737  13.7465  13.8161  13.8740  13.8983  13.9111  13.9519
    13.9746  14.0533  14.1714  14.2892  14.3960  14.4456  14.5006  14.5713
    14.6010  14.6459  14.7386  14.8474  14.8576  14.9252  14.9532  15.0137
    15.0725  15.1034  15.1390  15.1558  15.2348  15.2943  15.4563  15.4984
    15.5071  15.5594  15.5726  15.6167  15.6308  15.7052  15.7175  15.7927
    15.8010  15.8861  15.9605  16.0169  16.0587  16.0970  16.1103  16.1339
    16.1620  16.1740  16.2504  16.3163  16.3421  16.3964  16.5370  16.5811
    16.5850  16.6380  16.6852  16.7326  16.7764  16.8013  16.8307  16.8678
    16.9004  16.9484  17.0700  17.1186  17.1461  17.1717  17.1863  17.2155
    17.2311  17.2799  17.3136  17.3547  17.4375  17.4896  17.5585  17.5694
    17.5971  17.6360  17.7916  17.8451  17.8527  17.8955  17.9360  17.9554
    18.0016  18.0159  18.0188  18.0712  18.1048  18.1438  18.1744  18.2220
    18.3095  18.3232  18.3530  18.3793  18.5039  18.5868  18.7990  18.8375
    18.9115  18.9629  18.9802  18.9863  19.0295  19.0348  19.0814  19.0943
    19.1525  19.2180  19.2592  19.2776  19.3223  19.3261  19.3503  19.4220
    19.4870  19.5718  19.6097  19.6773  19.7630  19.8236  19.8429  19.8784
    19.9663  20.0007  20.0232  20.0471  20.0580  20.1181  20.1481  20.2025
    20.2654  20.3136  20.3316  20.3524  20.4816  20.5243  20.6106  20.6822
    20.6983  20.7119  20.7757  20.7828  20.7985  20.8588  20.8895  20.9346
    20.9544  20.9939  21.0082  21.0624  21.0669  21.1180  21.2038  21.2438
    21.2653  21.2967  21.3934  21.4488  21.5058  21.5370  21.5681  21.6335
    21.6384  21.6802  21.7315  21.7811  21.7895  21.8437  21.8511  21.9094
    21.9205  21.9791  21.9872  22.0392  22.0591  22.1125  22.1746  22.2098
    22.2374  22.2685  22.2979  22.3236  22.3554  22.3719  22.3927  22.4468
    22.5750  22.6141  22.6518  22.6805  22.8001  22.8715  22.8822  22.9169
    22.9354  22.9501  22.9901  23.0090  23.1667  23.2024  23.2172  23.2542
    23.2697  23.2951  23.3182  23.3330  23.3529  23.4167  23.4594  23.4738
    23.5065  23.5246  23.5390  23.5691  23.6094  23.6987  23.7291  23.7758
    23.8713  23.8782  23.9041  23.9354  23.9649  23.9780  24.1247  24.1554
    24.1805  24.1919  24.2133  24.2235  24.2503  24.3021  24.4040  24.4319
    24.4505  24.4648  24.4956  24.5127  24.5363  24.5861  24.5993  24.6395
    24.6968  24.7395  24.7641  24.8048  24.8769  24.9391  24.9680  24.9918
    25.0286  25.0408  25.0492  25.1005  25.1485  25.2093  25.2779  25.3078
    25.3278  25.3703  25.3907  25.4080  25.4361  25.4753  25.4874  25.5455
    25.6342  25.6746  25.6957  25.7339  25.7746  25.8283  25.8765  25.9244
    25.9397  25.9681  25.9934  26.0219  26.0531  26.1117  26.1925  26.2449
    26.2895  26.3640  26.3716  26.3954  26.4340  26.4574  26.5035  26.5666
    26.6056  26.6763  26.7011  26.7202  26.7507  26.7775  26.8065  26.8736
    26.8829  26.9259  26.9382  26.9750  26.9919  27.0309  27.1080  27.1438
    27.1653  27.2275  27.3175  27.3873  27.4203  27.4549  27.4937  27.5075

     occupation numbers 
     1.0000   1.0000   1.0000   1.0000   1.0000   1.0000   1.0000   1.0000
     1.0000   1.0000   1.0000   1.0000   1.0000   1.0000   1.0000   1.0000
     1.0000   1.0000   1.0000   1.0000   1.0000   1.0000   1.0000   1.0000
     1.0000   1.0000   1.0000   1.0000   1.0000   1.0000   1.0000   1.0000
     1.0000   1.0000   1.0000   1.0000   1.0000   1.0000   1.0000   1.0000
     1.0000   1.0000   1.0000   1.0000   1.0000   1.0000   1.0000   1.0000
     1.0000   1.0000   1.0000   1.0000   1.0000   1.0000   1.0000   1.0000
     1.0000   1.0000   1.0000   1.0000   1.0000   1.0000   1.0000   1.0000
     1.0000   1.0000   1.0000   1.0000   0.0000   0.0000   0.0000   0.0000
     0.0000   0.0000   0.0000   0.0000   0.0000   0.0000   0.0000   0.0000
     0.0000   0.0000   0.0000   0.0000   0.0000   0.0000   0.0000   0.0000
     0.0000   0.0000   0.0000   0.0000   0.0000   0.0000   0.0000   0.0000
     0.0000   0.0000   0.0000   0.0000   0.0000   0.0000   0.0000   0.0000
     0.0000   0.0000   0.0000   0.0000   0.0000   0.0000   0.0000   0.0000
     0.0000   0.0000   0.0000   0.0000   0.0000   0.0000   0.0000   0.0000
     0.0000   0.0000   0.0000   0.0000   0.0000   0.0000   0.0000   0.0000
     0.0000   0.0000   0.0000   0.0000   0.0000   0.0000   0.0000   0.0000
     0.0000   0.0000   0.0000   0.0000   0.0000   0.0000   0.0000   0.0000
     0.0000   0.0000   0.0000   0.0000   0.0000   0.0000   0.0000   0.0000
     0.0000   0.0000   0.0000   0.0000   0.0000   0.0000   0.0000   0.0000
     0.0000   0.0000   0.0000   0.0000   0.0000   0.0000   0.0000   0.0000
     0.0000   0.0000   0.0000   0.0000   0.0000   0.0000   0.0000   0.0000
     0.0000   0.0000   0.0000   0.0000   0.0000   0.0000   0.0000   0.0000
     0.0000   0.0000   0.0000   0.0000   0.0000   0.0000   0.0000   0.0000
     0.0000   0.0000   0.0000   0.0000   0.0000   0.0000   0.0000   0.0000
     0.0000   0.0000   0.0000   0.0000   0.0000   0.0000   0.0000   0.0000
     0.0000   0.0000   0.0000   0.0000   0.0000   0.0000   0.0000   0.0000
     0.0000   0.0000   0.0000   0.0000   0.0000   0.0000   0.0000   0.0000
     0.0000   0.0000   0.0000   0.0000   0.0000   0.0000   0.0000   0.0000
     0.0000   0.0000   0.0000   0.0000   0.0000   0.0000   0.0000   0.0000
     0.0000   0.0000   0.0000   0.0000   0.0000   0.0000   0.0000   0.0000
     0.0000   0.0000   0.0000   0.0000   0.0000   0.0000   0.0000   0.0000
     0.0000   0.0000   0.0000   0.0000   0.0000   0.0000   0.0000   0.0000
     0.0000   0.0000   0.0000   0.0000   0.0000   0.0000   0.0000   0.0000
     0.0000   0.0000   0.0000   0.0000   0.0000   0.0000   0.0000   0.0000
     0.0000   0.0000   0.0000   0.0000   0.0000   0.0000   0.0000   0.0000
     0.0000   0.0000   0.0000   0.0000   0.0000   0.0000   0.0000   0.0000
     0.0000   0.0000   0.0000   0.0000   0.0000   0.0000   0.0000   0.0000
     0.0000   0.0000   0.0000   0.0000   0.0000   0.0000   0.0000   0.0000
     0.0000   0.0000   0.0000   0.0000   0.0000   0.0000   0.0000   0.0000
     0.0000   0.0000   0.0000   0.0000   0.0000   0.0000   0.0000   0.0000
     0.0000   0.0000   0.0000   0.0000   0.0000   0.0000   0.0000   0.0000
     0.0000   0.0000   0.0000   0.0000   0.0000   0.0000   0.0000   0.0000
     0.0000   0.0000   0.0000   0.0000   0.0000   0.0000   0.0000   0.0000
     0.0000   0.0000   0.0000   0.0000   0.0000   0.0000   0.0000   0.0000
     0.0000   0.0000   0.0000   0.0000   0.0000   0.0000   0.0000   0.0000
     0.0000   0.0000   0.0000   0.0000   0.0000   0.0000   0.0000   0.0000
     0.0000   0.0000   0.0000   0.0000   0.0000   0.0000   0.0000   0.0000
     0.0000   0.0000   0.0000   0.0000   0.0000   0.0000   0.0000   0.0000
     0.0000   0.0000   0.0000   0.0000   0.0000   0.0000   0.0000   0.0000
     0.0000   0.0000   0.0000   0.0000   0.0000   0.0000   0.0000   0.0000
     0.0000   0.0000   0.0000   0.0000   0.0000   0.0000   0.0000   0.0000
     0.0000   0.0000   0.0000   0.0000   0.0000   0.0000   0.0000   0.0000
     0.0000   0.0000   0.0000   0.0000   0.0000   0.0000   0.0000   0.0000
     0.0000   0.0000   0.0000   0.0000   0.0000   0.0000   0.0000   0.0000
     0.0000   0.0000   0.0000   0.0000   0.0000   0.0000   0.0000   0.0000
     0.0000   0.0000   0.0000   0.0000   0.0000   0.0000   0.0000   0.0000
     0.0000   0.0000   0.0000   0.0000   0.0000   0.0000   0.0000   0.0000
     0.0000   0.0000   0.0000   0.0000   0.0000   0.0000   0.0000   0.0000
     0.0000   0.0000   0.0000   0.0000   0.0000   0.0000   0.0000   0.0000
     0.0000   0.0000   0.0000   0.0000   0.0000   0.0000   0.0000   0.0000
     0.0000   0.0000   0.0000   0.0000   0.0000   0.0000   0.0000   0.0000
     0.0000   0.0000   0.0000   0.0000   0.0000   0.0000   0.0000   0.0000
     0.0000   0.0000   0.0000   0.0000   0.0000   0.0000   0.0000   0.0000
     0.0000   0.0000   0.0000   0.0000   0.0000   0.0000   0.0000   0.0000
     0.0000   0.0000   0.0000   0.0000   0.0000   0.0000   0.0000   0.0000
     0.0000   0.0000   0.0000   0.0000   0.0000   0.0000   0.0000   0.0000
     0.0000   0.0000   0.0000   0.0000   0.0000   0.0000   0.0000   0.0000
     0.0000   0.0000   0.0000   0.0000   0.0000   0.0000   0.0000   0.0000
     0.0000   0.0000   0.0000   0.0000   0.0000   0.0000   0.0000   0.0000
     0.0000   0.0000   0.0000   0.0000   0.0000   0.0000   0.0000   0.0000
     0.0000   0.0000   0.0000   0.0000   0.0000   0.0000   0.0000   0.0000
     0.0000   0.0000   0.0000   0.0000   0.0000   0.0000   0.0000   0.0000
     0.0000   0.0000   0.0000   0.0000   0.0000   0.0000   0.0000   0.0000
     0.0000   0.0000   0.0000   0.0000   0.0000   0.0000   0.0000   0.0000

          k =-0.5000 0.0962 0.0000 ( 59462 PWs)   bands (ev):

   -73.4619 -73.4615 -71.3727 -71.3723 -47.5877 -47.5864 -47.2962 -47.2957
   -46.9687 -46.9672 -45.3654 -45.3638 -45.0703 -45.0698 -44.8930 -44.8912
   -18.1283 -18.0943 -17.8465 -17.8083 -17.7736 -17.7071 -17.6689 -17.6350
   -17.6028 -17.5935 -17.4736 -17.3874 -11.6752 -11.5858 -11.4095 -11.2395
   -10.1113  -9.9816  -9.7448  -9.6102  -9.3860  -9.3595  -9.0929  -9.0147
    -8.8301  -8.7454  -8.4570  -8.3300  -8.2766  -8.1922  -8.0287  -7.8852
    -7.7893  -7.5918  -7.5056  -7.3912  -7.3262  -7.2496  -7.1548  -7.0409
    -6.9027  -6.8639  -6.7806  -6.6897  -6.6127  -6.4975  -6.4236  -6.3086
    -6.0624  -5.9658  -5.9093  -5.6744  -5.3032  -5.2021  -5.1252  -5.0181
    -4.9475  -4.9104  -4.1918  -4.1574  -4.0071  -3.8574  -3.8044  -3.7676
    -2.4935  -2.3708  -2.3233  -2.2759  -1.4766  -1.1186  -0.8668  -0.5237
    -0.3327  -0.2059  -0.1642  -0.0564   0.0426   0.1736   0.3657   0.4074
     0.4977   0.5537   0.6526   0.7265   0.7465   0.8794   0.9534   1.0640
     1.1404   1.2180   1.2755   1.3784   1.5745   1.6520   1.7039   1.7742
     1.8778   1.9867   2.0406   2.1230   2.2620   2.4092   2.5154   2.6047
     2.8044   2.8599   2.9314   3.0280   3.0442   3.1341   3.4310   3.4953
     3.6149   3.6660   3.6763   3.6913   3.7082   3.7993   4.1546   4.2082
     4.3422   4.4144   4.5941   4.6889   4.8908   4.9099   4.9918   5.0290
     5.3259   5.4005   5.4354   5.4829   5.6025   5.6652   5.6902   5.7415
     5.7803   5.8348   5.9760   6.0485   6.0659   6.1268   6.1395   6.2110
     6.3324   6.4350   6.4613   6.5397   6.7693   6.8485   6.9578   7.0114
     7.0342   7.0946   7.1182   7.1733   7.2728   7.3577   7.4022   7.4872
     7.5246   7.5798   7.6208   7.6827   7.7701   7.8187   7.9675   7.9910
     8.0521   8.1023   8.3618   8.4055   8.4883   8.5595   8.5890   8.6687
     8.8203   8.9087   9.0247   9.0473   9.0721   9.1147   9.1362   9.2102
     9.3291   9.3734   9.3804   9.4423   9.4861   9.5463   9.5584   9.6578
     9.6862   9.7973   9.8706   9.9313   9.9935  10.0371  10.1727  10.2189
    10.2948  10.3327  10.4190  10.5267  10.5460  10.5963  10.7536  10.8046
    10.8183  10.8725  10.9827  11.0175  11.0334  11.0969  11.1095  11.1739
    11.2014  11.2507  11.2941  11.3596  11.4324  11.4906  11.5481  11.5906
    11.6227  11.6358  11.6470  11.6697  11.6954  11.7312  11.8323  11.9477
    12.0367  12.0826  12.1010  12.1342  12.1596  12.2050  12.3513  12.3715
    12.4033  12.4163  12.4971  12.5798  12.6869  12.7619  12.7702  12.8631
    12.9693  13.0036  13.0199  13.0511  13.0687  13.0969  13.2270  13.2682
    13.3058  13.3234  13.3665  13.4165  13.4370  13.4764  13.4872  13.5392
    13.6024  13.6768  13.7497  13.8188  13.8732  13.8975  13.9106  13.9507
    13.9712  14.0493  14.1724  14.2906  14.3975  14.4473  14.4982  14.5698
    14.6001  14.6460  14.7395  14.8473  14.8538  14.9235  14.9554  15.0180
    15.0728  15.1033  15.1390  15.1551  15.2345  15.2941  15.4557  15.4976
    15.5066  15.5586  15.5720  15.6177  15.6293  15.7081  15.7158  15.7900
    15.8019  15.8895  15.9571  16.0138  16.0596  16.0967  16.1099  16.1321
    16.1615  16.1720  16.2538  16.3201  16.3431  16.3979  16.5344  16.5790
    16.5842  16.6361  16.6849  16.7321  16.7776  16.8012  16.8324  16.8687
    16.8991  16.9456  17.0720  17.1193  17.1509  17.1716  17.1895  17.2164
    17.2319  17.2835  17.3122  17.3531  17.4345  17.4860  17.5566  17.5740
    17.5958  17.6389  17.7897  17.8442  17.8520  17.8952  17.9391  17.9560
    18.0043  18.0169  18.0192  18.0724  18.1019  18.1406  18.1703  18.2174
    18.3125  18.3238  18.3556  18.3797  18.5035  18.5863  18.7995  18.8379
    18.9102  18.9614  18.9795  18.9862  19.0321  19.0388  19.0782  19.1006
    19.1576  19.2220  19.2595  19.2774  19.3231  19.3256  19.3470  19.4193
    19.4844  19.5691  19.6107  19.6792  19.7624  19.8233  19.8416  19.8789
    19.9637  19.9997  20.0208  20.0460  20.0569  20.1163  20.1420  20.1962
    20.2706  20.3121  20.3369  20.3505  20.4850  20.5283  20.6104  20.6826
    20.6984  20.7128  20.7744  20.7821  20.8005  20.8561  20.8886  20.9344
    20.9535  20.9924  21.0063  21.0624  21.0666  21.1188  21.2072  21.2431
    21.2693  21.2957  21.3906  21.4455  21.5037  21.5351  21.5741  21.6347
    21.6436  21.6797  21.7320  21.7850  21.7944  21.8458  21.8574  21.9069
    21.9186  21.9786  21.9831  22.0380  22.0601  22.1137  22.1775  22.2071
    22.2396  22.2663  22.2944  22.3255  22.3545  22.3717  22.3931  22.4493
    22.5743  22.6170  22.6525  22.6833  22.7974  22.8684  22.8804  22.9152
    22.9354  22.9466  22.9907  23.0055  23.1680  23.2007  23.2187  23.2502
    23.2671  23.2926  23.3146  23.3321  23.3528  23.4153  23.4587  23.4732
    23.5082  23.5259  23.5389  23.5715  23.6086  23.6969  23.7313  23.7771
    23.8715  23.8831  23.9063  23.9374  23.9673  23.9825  24.1237  24.1571
    24.1843  24.1929  24.2148  24.2260  24.2515  24.3038  24.4048  24.4282
    24.4505  24.4671  24.4964  24.5082  24.5359  24.5835  24.5990  24.6373
    24.6955  24.7393  24.7636  24.8044  24.8732  24.9348  24.9703  24.9927
    25.0305  25.0402  25.0484  25.1002  25.1475  25.2084  25.2779  25.3098
    25.3279  25.3735  25.3883  25.4079  25.4345  25.4720  25.4852  25.5436
    25.6346  25.6740  25.6961  25.7324  25.7740  25.8280  25.8762  25.9240
    25.9381  25.9684  25.9921  26.0225  26.0525  26.1115  26.1950  26.2467
    26.2907  26.3660  26.3716  26.3981  26.4331  26.4619  26.5012  26.5643
    26.6112  26.6821  26.7072  26.7226  26.7564  26.7794  26.8063  26.8738
    26.8831  26.9265  26.9328  26.9715  26.9868  27.0270  27.1047  27.1421
    27.1606  27.2215  27.3198  27.3895  27.4236  27.4565  27.4960  27.5073

     occupation numbers 
     1.0000   1.0000   1.0000   1.0000   1.0000   1.0000   1.0000   1.0000
     1.0000   1.0000   1.0000   1.0000   1.0000   1.0000   1.0000   1.0000
     1.0000   1.0000   1.0000   1.0000   1.0000   1.0000   1.0000   1.0000
     1.0000   1.0000   1.0000   1.0000   1.0000   1.0000   1.0000   1.0000
     1.0000   1.0000   1.0000   1.0000   1.0000   1.0000   1.0000   1.0000
     1.0000   1.0000   1.0000   1.0000   1.0000   1.0000   1.0000   1.0000
     1.0000   1.0000   1.0000   1.0000   1.0000   1.0000   1.0000   1.0000
     1.0000   1.0000   1.0000   1.0000   1.0000   1.0000   1.0000   1.0000
     1.0000   1.0000   1.0000   1.0000   0.0000   0.0000   0.0000   0.0000
     0.0000   0.0000   0.0000   0.0000   0.0000   0.0000   0.0000   0.0000
     0.0000   0.0000   0.0000   0.0000   0.0000   0.0000   0.0000   0.0000
     0.0000   0.0000   0.0000   0.0000   0.0000   0.0000   0.0000   0.0000
     0.0000   0.0000   0.0000   0.0000   0.0000   0.0000   0.0000   0.0000
     0.0000   0.0000   0.0000   0.0000   0.0000   0.0000   0.0000   0.0000
     0.0000   0.0000   0.0000   0.0000   0.0000   0.0000   0.0000   0.0000
     0.0000   0.0000   0.0000   0.0000   0.0000   0.0000   0.0000   0.0000
     0.0000   0.0000   0.0000   0.0000   0.0000   0.0000   0.0000   0.0000
     0.0000   0.0000   0.0000   0.0000   0.0000   0.0000   0.0000   0.0000
     0.0000   0.0000   0.0000   0.0000   0.0000   0.0000   0.0000   0.0000
     0.0000   0.0000   0.0000   0.0000   0.0000   0.0000   0.0000   0.0000
     0.0000   0.0000   0.0000   0.0000   0.0000   0.0000   0.0000   0.0000
     0.0000   0.0000   0.0000   0.0000   0.0000   0.0000   0.0000   0.0000
     0.0000   0.0000   0.0000   0.0000   0.0000   0.0000   0.0000   0.0000
     0.0000   0.0000   0.0000   0.0000   0.0000   0.0000   0.0000   0.0000
     0.0000   0.0000   0.0000   0.0000   0.0000   0.0000   0.0000   0.0000
     0.0000   0.0000   0.0000   0.0000   0.0000   0.0000   0.0000   0.0000
     0.0000   0.0000   0.0000   0.0000   0.0000   0.0000   0.0000   0.0000
     0.0000   0.0000   0.0000   0.0000   0.0000   0.0000   0.0000   0.0000
     0.0000   0.0000   0.0000   0.0000   0.0000   0.0000   0.0000   0.0000
     0.0000   0.0000   0.0000   0.0000   0.0000   0.0000   0.0000   0.0000
     0.0000   0.0000   0.0000   0.0000   0.0000   0.0000   0.0000   0.0000
     0.0000   0.0000   0.0000   0.0000   0.0000   0.0000   0.0000   0.0000
     0.0000   0.0000   0.0000   0.0000   0.0000   0.0000   0.0000   0.0000
     0.0000   0.0000   0.0000   0.0000   0.0000   0.0000   0.0000   0.0000
     0.0000   0.0000   0.0000   0.0000   0.0000   0.0000   0.0000   0.0000
     0.0000   0.0000   0.0000   0.0000   0.0000   0.0000   0.0000   0.0000
     0.0000   0.0000   0.0000   0.0000   0.0000   0.0000   0.0000   0.0000
     0.0000   0.0000   0.0000   0.0000   0.0000   0.0000   0.0000   0.0000
     0.0000   0.0000   0.0000   0.0000   0.0000   0.0000   0.0000   0.0000
     0.0000   0.0000   0.0000   0.0000   0.0000   0.0000   0.0000   0.0000
     0.0000   0.0000   0.0000   0.0000   0.0000   0.0000   0.0000   0.0000
     0.0000   0.0000   0.0000   0.0000   0.0000   0.0000   0.0000   0.0000
     0.0000   0.0000   0.0000   0.0000   0.0000   0.0000   0.0000   0.0000
     0.0000   0.0000   0.0000   0.0000   0.0000   0.0000   0.0000   0.0000
     0.0000   0.0000   0.0000   0.0000   0.0000   0.0000   0.0000   0.0000
     0.0000   0.0000   0.0000   0.0000   0.0000   0.0000   0.0000   0.0000
     0.0000   0.0000   0.0000   0.0000   0.0000   0.0000   0.0000   0.0000
     0.0000   0.0000   0.0000   0.0000   0.0000   0.0000   0.0000   0.0000
     0.0000   0.0000   0.0000   0.0000   0.0000   0.0000   0.0000   0.0000
     0.0000   0.0000   0.0000   0.0000   0.0000   0.0000   0.0000   0.0000
     0.0000   0.0000   0.0000   0.0000   0.0000   0.0000   0.0000   0.0000
     0.0000   0.0000   0.0000   0.0000   0.0000   0.0000   0.0000   0.0000
     0.0000   0.0000   0.0000   0.0000   0.0000   0.0000   0.0000   0.0000
     0.0000   0.0000   0.0000   0.0000   0.0000   0.0000   0.0000   0.0000
     0.0000   0.0000   0.0000   0.0000   0.0000   0.0000   0.0000   0.0000
     0.0000   0.0000   0.0000   0.0000   0.0000   0.0000   0.0000   0.0000
     0.0000   0.0000   0.0000   0.0000   0.0000   0.0000   0.0000   0.0000
     0.0000   0.0000   0.0000   0.0000   0.0000   0.0000   0.0000   0.0000
     0.0000   0.0000   0.0000   0.0000   0.0000   0.0000   0.0000   0.0000
     0.0000   0.0000   0.0000   0.0000   0.0000   0.0000   0.0000   0.0000
     0.0000   0.0000   0.0000   0.0000   0.0000   0.0000   0.0000   0.0000
     0.0000   0.0000   0.0000   0.0000   0.0000   0.0000   0.0000   0.0000
     0.0000   0.0000   0.0000   0.0000   0.0000   0.0000   0.0000   0.0000
     0.0000   0.0000   0.0000   0.0000   0.0000   0.0000   0.0000   0.0000
     0.0000   0.0000   0.0000   0.0000   0.0000   0.0000   0.0000   0.0000
     0.0000   0.0000   0.0000   0.0000   0.0000   0.0000   0.0000   0.0000
     0.0000   0.0000   0.0000   0.0000   0.0000   0.0000   0.0000   0.0000
     0.0000   0.0000   0.0000   0.0000   0.0000   0.0000   0.0000   0.0000
     0.0000   0.0000   0.0000   0.0000   0.0000   0.0000   0.0000   0.0000
     0.0000   0.0000   0.0000   0.0000   0.0000   0.0000   0.0000   0.0000
     0.0000   0.0000   0.0000   0.0000   0.0000   0.0000   0.0000   0.0000
     0.0000   0.0000   0.0000   0.0000   0.0000   0.0000   0.0000   0.0000
     0.0000   0.0000   0.0000   0.0000   0.0000   0.0000   0.0000   0.0000
     0.0000   0.0000   0.0000   0.0000   0.0000   0.0000   0.0000   0.0000
     0.0000   0.0000   0.0000   0.0000   0.0000   0.0000   0.0000   0.0000

          k =-0.5000-0.8660 0.0000 ( 59450 PWs)   bands (ev):

   -73.4619 -73.4616 -71.3727 -71.3723 -47.5877 -47.5864 -47.2962 -47.2957
   -46.9687 -46.9672 -45.3654 -45.3638 -45.0703 -45.0698 -44.8930 -44.8912
   -18.1047 -18.0626 -17.9004 -17.8862 -17.7642 -17.7001 -17.6907 -17.6116
   -17.5565 -17.5521 -17.5097 -17.3777 -11.6874 -11.5851 -11.4042 -11.2255
   -10.2153 -10.0955  -9.6695  -9.5561  -9.5152  -9.4775  -8.9447  -8.8637
    -8.7176  -8.4902  -8.4166  -8.3753  -8.2328  -8.1640  -8.0991  -8.0730
    -7.6511  -7.5925  -7.5582  -7.4783  -7.3505  -7.1861  -7.1553  -7.0776
    -6.9494  -6.8267  -6.7501  -6.6991  -6.6889  -6.5847  -6.3661  -6.1970
    -6.0890  -6.0038  -5.9431  -5.9216  -5.3622  -5.2129  -5.0224  -5.0023
    -4.9826  -4.9204  -4.1979  -4.1854  -3.9169  -3.8746  -3.8405  -3.7636
    -2.5621  -2.3356  -2.3287  -2.2937  -1.6175  -1.2471  -0.4674  -0.4072
    -0.3547   0.0102   0.0510   0.1638   0.2207   0.3173   0.3661   0.4214
     0.4247   0.4841   0.5017   0.5588   0.6110   0.6462   1.1544   1.2401
     1.3032   1.4212   1.6448   1.6689   1.7442   1.7628   1.7961   1.9064
     2.1028   2.1138   2.2247   2.2384   2.2602   2.4348   2.4598   2.5049
     2.6311   2.7024   2.7444   2.8205   2.8291   2.8490   2.9490   2.9842
     3.0048   3.0739   3.4373   3.4983   3.5150   3.5688   3.8160   3.8456
     3.8933   3.9959   4.3802   4.5189   4.9119   4.9892   5.0170   5.0256
     5.0507   5.0536   5.7032   5.7406   5.7845   5.8353   5.9407   5.9414
     5.9868   5.9872   6.0354   6.0425   6.2501   6.3532   6.3555   6.4091
     6.5200   6.6022   6.6094   6.6976   6.7808   6.8121   7.3555   7.3606
     7.3754   7.4171   7.4254   7.4324   7.4837   7.5019   7.7273   7.7984
     7.8066   7.8129   7.8595   7.8650   7.9116   7.9644   8.1014   8.1765
     8.1800   8.2196   8.2938   8.4192   8.5668   8.6109   8.6392   8.6851
     8.8552   8.9330   8.9348   9.0305   9.1335   9.2025   9.2046   9.2583
     9.2986   9.3535   9.4257   9.4685   9.5747   9.6406   9.6764   9.6828
     9.7316   9.8460   9.8549   9.8979  10.0234  10.0995  10.1151  10.1417
    10.1654  10.2236  10.3290  10.3622  10.3895  10.4017  10.4053  10.4661
    10.5067  10.5201  10.5219  10.5925  10.7460  10.7791  10.8168  10.8916
    11.1226  11.1408  11.1798  11.1991  11.3058  11.3286  11.3433  11.4020
    11.4103  11.4134  11.4515  11.4616  11.5378  11.6199  11.7143  11.7474
    11.7763  11.7963  11.8320  11.8751  12.0288  12.0601  12.0930  12.1222
    12.2031  12.2431  12.3354  12.3709  12.8300  12.8429  12.8546  12.8900
    12.9016  12.9104  12.9269  12.9273  12.9952  13.0305  13.0431  13.0695
    13.2372  13.3563  13.3781  13.4885  13.7384  13.7852  13.8237  13.8459
    13.8581  13.9167  14.1127  14.1241  14.1578  14.1582  14.1919  14.1990
    14.2312  14.2688  14.2893  14.3514  14.4964  14.5014  14.5438  14.5588
    14.5647  14.6074  14.6692  14.7155  14.9467  14.9855  15.0119  15.0415
    15.0692  15.1027  15.2110  15.2218  15.2463  15.2618  15.3510  15.4613
    15.4746  15.5111  15.5475  15.5513  15.6900  15.7456  15.8695  15.9110
    15.9414  15.9484  16.0171  16.0206  16.0739  16.1196  16.1485  16.2138
    16.2154  16.2422  16.2709  16.2755  16.3160  16.3264  16.3951  16.4367
    16.6831  16.7219  16.7731  16.8137  16.9431  16.9703  17.0164  17.0594
    17.0906  17.0920  17.1188  17.1336  17.1921  17.2230  17.2486  17.3108
    17.3369  17.4220  17.5288  17.5498  17.5609  17.6392  17.6530  17.6810
    17.7013  17.7980  17.8125  17.8428  17.8710  17.8739  17.9060  17.9185
    18.0822  18.1567  18.1684  18.2678  18.3541  18.3844  18.4095  18.4475
    18.4712  18.5019  18.7083  18.7504  18.7657  18.7776  18.8813  18.9343
    18.9693  18.9911  18.9926  19.0289  19.0507  19.0572  19.0931  19.1058
    19.1496  19.1897  19.2577  19.3225  19.4004  19.4094  19.4315  19.4421
    19.4442  19.4973  19.5238  19.5717  19.6268  19.6742  19.6830  19.6896
    19.7372  19.7660  19.8388  19.9085  19.9800  19.9851  19.9908  20.0360
    20.0369  20.0737  20.1137  20.1696  20.2857  20.3116  20.3359  20.3429
    20.3463  20.3568  20.3969  20.4159  20.6108  20.6543  20.6647  20.7189
    20.8396  20.8874  20.9016  20.9263  20.9542  20.9588  21.0761  21.1470
    21.2599  21.3161  21.3739  21.4546  21.4799  21.5325  21.5565  21.5861
    21.6859  21.7688  21.8716  21.9451  21.9747  22.0000  22.0635  22.0851
    22.1131  22.1402  22.1447  22.1629  22.1827  22.2197  22.2569  22.2930
    22.3104  22.3704  22.3885  22.3900  22.4149  22.4267  22.4274  22.4387
    22.4774  22.4834  22.4951  22.5418  22.6005  22.6261  22.6393  22.6712
    22.9891  23.0254  23.0616  23.0682  23.0830  23.0969  23.1178  23.1384
    23.1425  23.1474  23.1622  23.1771  23.2634  23.2730  23.2849  23.2930
    23.3064  23.3154  23.3193  23.3561  23.3836  23.4247  23.4594  23.5020
    23.5212  23.5705  23.5990  23.6425  23.7302  23.7660  23.8196  23.8790
    23.8898  23.8907  23.9327  23.9507  24.1812  24.1966  24.2433  24.2538
    24.3128  24.3516  24.3648  24.4296  24.5801  24.5962  24.7501  24.7509
    24.7979  24.8208  24.9240  24.9807  25.0271  25.1188  25.1419  25.1580
    25.1866  25.2330  25.2604  25.2877  25.3763  25.4716  25.4998  25.5216
    25.5370  25.5547  25.5917  25.6443  25.6858  25.7094  25.7436  25.7733
    25.8314  25.8783  25.8976  25.9239  25.9668  26.0062  26.1133  26.1615
    26.1656  26.1914  26.2283  26.2510  26.2886  26.2922  26.3704  26.3813
    26.4039  26.4288  26.4749  26.4967  26.5452  26.5657  26.6420  26.6459
    26.6642  26.7009  26.7356  26.7806  26.8222  26.8226  26.8775  26.8902
    26.9207  26.9334  26.9882  27.0700  27.1656  27.1931  27.2199  27.2309
    27.2645  27.2728  27.3172  27.3477  27.5736  27.6059  27.6118  27.6303

     occupation numbers 
     1.0000   1.0000   1.0000   1.0000   1.0000   1.0000   1.0000   1.0000
     1.0000   1.0000   1.0000   1.0000   1.0000   1.0000   1.0000   1.0000
     1.0000   1.0000   1.0000   1.0000   1.0000   1.0000   1.0000   1.0000
     1.0000   1.0000   1.0000   1.0000   1.0000   1.0000   1.0000   1.0000
     1.0000   1.0000   1.0000   1.0000   1.0000   1.0000   1.0000   1.0000
     1.0000   1.0000   1.0000   1.0000   1.0000   1.0000   1.0000   1.0000
     1.0000   1.0000   1.0000   1.0000   1.0000   1.0000   1.0000   1.0000
     1.0000   1.0000   1.0000   1.0000   1.0000   1.0000   1.0000   1.0000
     1.0000   1.0000   1.0000   1.0000   0.0000   0.0000   0.0000   0.0000
     0.0000   0.0000   0.0000   0.0000   0.0000   0.0000   0.0000   0.0000
     0.0000   0.0000   0.0000   0.0000   0.0000   0.0000   0.0000   0.0000
     0.0000   0.0000   0.0000   0.0000   0.0000   0.0000   0.0000   0.0000
     0.0000   0.0000   0.0000   0.0000   0.0000   0.0000   0.0000   0.0000
     0.0000   0.0000   0.0000   0.0000   0.0000   0.0000   0.0000   0.0000
     0.0000   0.0000   0.0000   0.0000   0.0000   0.0000   0.0000   0.0000
     0.0000   0.0000   0.0000   0.0000   0.0000   0.0000   0.0000   0.0000
     0.0000   0.0000   0.0000   0.0000   0.0000   0.0000   0.0000   0.0000
     0.0000   0.0000   0.0000   0.0000   0.0000   0.0000   0.0000   0.0000
     0.0000   0.0000   0.0000   0.0000   0.0000   0.0000   0.0000   0.0000
     0.0000   0.0000   0.0000   0.0000   0.0000   0.0000   0.0000   0.0000
     0.0000   0.0000   0.0000   0.0000   0.0000   0.0000   0.0000   0.0000
     0.0000   0.0000   0.0000   0.0000   0.0000   0.0000   0.0000   0.0000
     0.0000   0.0000   0.0000   0.0000   0.0000   0.0000   0.0000   0.0000
     0.0000   0.0000   0.0000   0.0000   0.0000   0.0000   0.0000   0.0000
     0.0000   0.0000   0.0000   0.0000   0.0000   0.0000   0.0000   0.0000
     0.0000   0.0000   0.0000   0.0000   0.0000   0.0000   0.0000   0.0000
     0.0000   0.0000   0.0000   0.0000   0.0000   0.0000   0.0000   0.0000
     0.0000   0.0000   0.0000   0.0000   0.0000   0.0000   0.0000   0.0000
     0.0000   0.0000   0.0000   0.0000   0.0000   0.0000   0.0000   0.0000
     0.0000   0.0000   0.0000   0.0000   0.0000   0.0000   0.0000   0.0000
     0.0000   0.0000   0.0000   0.0000   0.0000   0.0000   0.0000   0.0000
     0.0000   0.0000   0.0000   0.0000   0.0000   0.0000   0.0000   0.0000
     0.0000   0.0000   0.0000   0.0000   0.0000   0.0000   0.0000   0.0000
     0.0000   0.0000   0.0000   0.0000   0.0000   0.0000   0.0000   0.0000
     0.0000   0.0000   0.0000   0.0000   0.0000   0.0000   0.0000   0.0000
     0.0000   0.0000   0.0000   0.0000   0.0000   0.0000   0.0000   0.0000
     0.0000   0.0000   0.0000   0.0000   0.0000   0.0000   0.0000   0.0000
     0.0000   0.0000   0.0000   0.0000   0.0000   0.0000   0.0000   0.0000
     0.0000   0.0000   0.0000   0.0000   0.0000   0.0000   0.0000   0.0000
     0.0000   0.0000   0.0000   0.0000   0.0000   0.0000   0.0000   0.0000
     0.0000   0.0000   0.0000   0.0000   0.0000   0.0000   0.0000   0.0000
     0.0000   0.0000   0.0000   0.0000   0.0000   0.0000   0.0000   0.0000
     0.0000   0.0000   0.0000   0.0000   0.0000   0.0000   0.0000   0.0000
     0.0000   0.0000   0.0000   0.0000   0.0000   0.0000   0.0000   0.0000
     0.0000   0.0000   0.0000   0.0000   0.0000   0.0000   0.0000   0.0000
     0.0000   0.0000   0.0000   0.0000   0.0000   0.0000   0.0000   0.0000
     0.0000   0.0000   0.0000   0.0000   0.0000   0.0000   0.0000   0.0000
     0.0000   0.0000   0.0000   0.0000   0.0000   0.0000   0.0000   0.0000
     0.0000   0.0000   0.0000   0.0000   0.0000   0.0000   0.0000   0.0000
     0.0000   0.0000   0.0000   0.0000   0.0000   0.0000   0.0000   0.0000
     0.0000   0.0000   0.0000   0.0000   0.0000   0.0000   0.0000   0.0000
     0.0000   0.0000   0.0000   0.0000   0.0000   0.0000   0.0000   0.0000
     0.0000   0.0000   0.0000   0.0000   0.0000   0.0000   0.0000   0.0000
     0.0000   0.0000   0.0000   0.0000   0.0000   0.0000   0.0000   0.0000
     0.0000   0.0000   0.0000   0.0000   0.0000   0.0000   0.0000   0.0000
     0.0000   0.0000   0.0000   0.0000   0.0000   0.0000   0.0000   0.0000
     0.0000   0.0000   0.0000   0.0000   0.0000   0.0000   0.0000   0.0000
     0.0000   0.0000   0.0000   0.0000   0.0000   0.0000   0.0000   0.0000
     0.0000   0.0000   0.0000   0.0000   0.0000   0.0000   0.0000   0.0000
     0.0000   0.0000   0.0000   0.0000   0.0000   0.0000   0.0000   0.0000
     0.0000   0.0000   0.0000   0.0000   0.0000   0.0000   0.0000   0.0000
     0.0000   0.0000   0.0000   0.0000   0.0000   0.0000   0.0000   0.0000
     0.0000   0.0000   0.0000   0.0000   0.0000   0.0000   0.0000   0.0000
     0.0000   0.0000   0.0000   0.0000   0.0000   0.0000   0.0000   0.0000
     0.0000   0.0000   0.0000   0.0000   0.0000   0.0000   0.0000   0.0000
     0.0000   0.0000   0.0000   0.0000   0.0000   0.0000   0.0000   0.0000
     0.0000   0.0000   0.0000   0.0000   0.0000   0.0000   0.0000   0.0000
     0.0000   0.0000   0.0000   0.0000   0.0000   0.0000   0.0000   0.0000
     0.0000   0.0000   0.0000   0.0000   0.0000   0.0000   0.0000   0.0000
     0.0000   0.0000   0.0000   0.0000   0.0000   0.0000   0.0000   0.0000
     0.0000   0.0000   0.0000   0.0000   0.0000   0.0000   0.0000   0.0000
     0.0000   0.0000   0.0000   0.0000   0.0000   0.0000   0.0000   0.0000
     0.0000   0.0000   0.0000   0.0000   0.0000   0.0000   0.0000   0.0000
     0.0000   0.0000   0.0000   0.0000   0.0000   0.0000   0.0000   0.0000
     0.0000   0.0000   0.0000   0.0000   0.0000   0.0000   0.0000   0.0000

          k =-0.5000-0.6736 0.0000 ( 59462 PWs)   bands (ev):

   -73.4619 -73.4616 -71.3727 -71.3723 -47.5877 -47.5864 -47.2962 -47.2957
   -46.9687 -46.9672 -45.3654 -45.3638 -45.0703 -45.0698 -44.8930 -44.8912
   -18.1283 -18.0943 -17.8465 -17.8083 -17.7736 -17.7071 -17.6689 -17.6350
   -17.6028 -17.5935 -17.4736 -17.3874 -11.6752 -11.5858 -11.4095 -11.2395
   -10.1113  -9.9816  -9.7449  -9.6101  -9.3860  -9.3595  -9.0930  -9.0145
    -8.8300  -8.7455  -8.4572  -8.3299  -8.2766  -8.1922  -8.0288  -7.8852
    -7.7892  -7.5919  -7.5056  -7.3914  -7.3259  -7.2495  -7.1547  -7.0412
    -6.9026  -6.8640  -6.7805  -6.6896  -6.6129  -6.4973  -6.4238  -6.3085
    -6.0625  -5.9659  -5.9092  -5.6744  -5.3031  -5.2021  -5.1252  -5.0181
    -4.9474  -4.9104  -4.1918  -4.1574  -4.0072  -3.8573  -3.8044  -3.7677
    -2.4935  -2.3708  -2.3232  -2.2759  -1.4766  -1.1186  -0.8668  -0.5237
    -0.3327  -0.2060  -0.1642  -0.0564   0.0426   0.1736   0.3657   0.4073
     0.4977   0.5537   0.6526   0.7266   0.7464   0.8794   0.9534   1.0640
     1.1404   1.2181   1.2755   1.3784   1.5745   1.6520   1.7038   1.7742
     1.8777   1.9868   2.0406   2.1230   2.2620   2.4093   2.5155   2.6047
     2.8045   2.8599   2.9312   3.0282   3.0443   3.1339   3.4308   3.4956
     3.6150   3.6660   3.6763   3.6911   3.7082   3.7993   4.1546   4.2082
     4.3422   4.4144   4.5941   4.6889   4.8910   4.9098   4.9918   5.0290
     5.3259   5.4005   5.4355   5.4829   5.6025   5.6653   5.6902   5.7415
     5.7802   5.8348   5.9758   6.0487   6.0661   6.1269   6.1394   6.2109
     6.3324   6.4350   6.4614   6.5397   6.7693   6.8485   6.9580   7.0110
     7.0340   7.0950   7.1182   7.1732   7.2728   7.3577   7.4023   7.4872
     7.5246   7.5798   7.6207   7.6828   7.7702   7.8186   7.9674   7.9910
     8.0521   8.1023   8.3618   8.4055   8.4883   8.5596   8.5889   8.6686
     8.8203   8.9087   9.0248   9.0472   9.0721   9.1148   9.1362   9.2102
     9.3292   9.3735   9.3803   9.4423   9.4860   9.5464   9.5585   9.6578
     9.6861   9.7974   9.8706   9.9313   9.9935  10.0371  10.1727  10.2189
    10.2948  10.3327  10.4190  10.5267  10.5459  10.5963  10.7535  10.8046
    10.8183  10.8725  10.9827  11.0175  11.0333  11.0969  11.1095  11.1738
    11.2014  11.2508  11.2941  11.3596  11.4325  11.4905  11.5481  11.5906
    11.6227  11.6358  11.6471  11.6698  11.6954  11.7312  11.8323  11.9477
    12.0366  12.0826  12.1011  12.1342  12.1595  12.2050  12.3514  12.3716
    12.4032  12.4163  12.4971  12.5798  12.6869  12.7619  12.7702  12.8631
    12.9693  13.0035  13.0199  13.0511  13.0687  13.0969  13.2271  13.2681
    13.3056  13.3236  13.3664  13.4166  13.4370  13.4764  13.4872  13.5392
    13.6024  13.6768  13.7497  13.8188  13.8732  13.8976  13.9105  13.9506
    13.9712  14.0493  14.1724  14.2906  14.3975  14.4473  14.4983  14.5698
    14.6001  14.6460  14.7395  14.8473  14.8538  14.9235  14.9555  15.0180
    15.0728  15.1032  15.1390  15.1551  15.2345  15.2941  15.4557  15.4976
    15.5066  15.5586  15.5720  15.6178  15.6292  15.7082  15.7157  15.7901
    15.8019  15.8895  15.9571  16.0138  16.0596  16.0967  16.1098  16.1322
    16.1618  16.1716  16.2538  16.3201  16.3432  16.3979  16.5344  16.5790
    16.5842  16.6361  16.6849  16.7321  16.7777  16.8011  16.8324  16.8688
    16.8991  16.9455  17.0721  17.1193  17.1509  17.1715  17.1895  17.2164
    17.2319  17.2835  17.3122  17.3531  17.4345  17.4860  17.5566  17.5740
    17.5958  17.6389  17.7897  17.8442  17.8520  17.8951  17.9391  17.9560
    18.0043  18.0169  18.0192  18.0723  18.1018  18.1406  18.1702  18.2174
    18.3125  18.3238  18.3557  18.3797  18.5035  18.5863  18.7995  18.8379
    18.9101  18.9615  18.9795  18.9862  19.0321  19.0388  19.0782  19.1006
    19.1576  19.2220  19.2595  19.2774  19.3233  19.3253  19.3470  19.4192
    19.4844  19.5691  19.6107  19.6792  19.7624  19.8233  19.8416  19.8789
    19.9636  19.9997  20.0208  20.0460  20.0569  20.1163  20.1420  20.1962
    20.2706  20.3121  20.3368  20.3505  20.4850  20.5283  20.6104  20.6826
    20.6982  20.7129  20.7744  20.7821  20.8005  20.8561  20.8886  20.9344
    20.9535  20.9924  21.0063  21.0624  21.0666  21.1189  21.2072  21.2431
    21.2693  21.2957  21.3906  21.4455  21.5037  21.5351  21.5743  21.6347
    21.6433  21.6798  21.7321  21.7850  21.7944  21.8458  21.8574  21.9069
    21.9186  21.9786  21.9831  22.0380  22.0601  22.1137  22.1775  22.2071
    22.2396  22.2663  22.2944  22.3255  22.3545  22.3718  22.3931  22.4493
    22.5743  22.6170  22.6525  22.6833  22.7974  22.8684  22.8803  22.9153
    22.9354  22.9466  22.9907  23.0055  23.1680  23.2006  23.2187  23.2502
    23.2671  23.2927  23.3146  23.3320  23.3528  23.4153  23.4587  23.4733
    23.5082  23.5259  23.5387  23.5715  23.6086  23.6969  23.7312  23.7772
    23.8715  23.8832  23.9062  23.9374  23.9675  23.9823  24.1237  24.1570
    24.1843  24.1930  24.2150  24.2258  24.2515  24.3038  24.4048  24.4282
    24.4506  24.4671  24.4963  24.5083  24.5359  24.5834  24.5989  24.6374
    24.6955  24.7394  24.7636  24.8043  24.8733  24.9348  24.9702  24.9928
    25.0306  25.0402  25.0484  25.1001  25.1475  25.2084  25.2779  25.3098
    25.3279  25.3735  25.3883  25.4080  25.4345  25.4719  25.4852  25.5436
    25.6346  25.6740  25.6961  25.7324  25.7741  25.8280  25.8762  25.9240
    25.9380  25.9686  25.9922  26.0224  26.0525  26.1115  26.1950  26.2467
    26.2907  26.3660  26.3716  26.3982  26.4331  26.4619  26.5012  26.5643
    26.6112  26.6821  26.7072  26.7226  26.7563  26.7794  26.8063  26.8738
    26.8832  26.9265  26.9328  26.9715  26.9868  27.0270  27.1047  27.1421
    27.1606  27.2214  27.3198  27.3895  27.4236  27.4565  27.4960  27.5074

     occupation numbers 
     1.0000   1.0000   1.0000   1.0000   1.0000   1.0000   1.0000   1.0000
     1.0000   1.0000   1.0000   1.0000   1.0000   1.0000   1.0000   1.0000
     1.0000   1.0000   1.0000   1.0000   1.0000   1.0000   1.0000   1.0000
     1.0000   1.0000   1.0000   1.0000   1.0000   1.0000   1.0000   1.0000
     1.0000   1.0000   1.0000   1.0000   1.0000   1.0000   1.0000   1.0000
     1.0000   1.0000   1.0000   1.0000   1.0000   1.0000   1.0000   1.0000
     1.0000   1.0000   1.0000   1.0000   1.0000   1.0000   1.0000   1.0000
     1.0000   1.0000   1.0000   1.0000   1.0000   1.0000   1.0000   1.0000
     1.0000   1.0000   1.0000   1.0000   0.0000   0.0000   0.0000   0.0000
     0.0000   0.0000   0.0000   0.0000   0.0000   0.0000   0.0000   0.0000
     0.0000   0.0000   0.0000   0.0000   0.0000   0.0000   0.0000   0.0000
     0.0000   0.0000   0.0000   0.0000   0.0000   0.0000   0.0000   0.0000
     0.0000   0.0000   0.0000   0.0000   0.0000   0.0000   0.0000   0.0000
     0.0000   0.0000   0.0000   0.0000   0.0000   0.0000   0.0000   0.0000
     0.0000   0.0000   0.0000   0.0000   0.0000   0.0000   0.0000   0.0000
     0.0000   0.0000   0.0000   0.0000   0.0000   0.0000   0.0000   0.0000
     0.0000   0.0000   0.0000   0.0000   0.0000   0.0000   0.0000   0.0000
     0.0000   0.0000   0.0000   0.0000   0.0000   0.0000   0.0000   0.0000
     0.0000   0.0000   0.0000   0.0000   0.0000   0.0000   0.0000   0.0000
     0.0000   0.0000   0.0000   0.0000   0.0000   0.0000   0.0000   0.0000
     0.0000   0.0000   0.0000   0.0000   0.0000   0.0000   0.0000   0.0000
     0.0000   0.0000   0.0000   0.0000   0.0000   0.0000   0.0000   0.0000
     0.0000   0.0000   0.0000   0.0000   0.0000   0.0000   0.0000   0.0000
     0.0000   0.0000   0.0000   0.0000   0.0000   0.0000   0.0000   0.0000
     0.0000   0.0000   0.0000   0.0000   0.0000   0.0000   0.0000   0.0000
     0.0000   0.0000   0.0000   0.0000   0.0000   0.0000   0.0000   0.0000
     0.0000   0.0000   0.0000   0.0000   0.0000   0.0000   0.0000   0.0000
     0.0000   0.0000   0.0000   0.0000   0.0000   0.0000   0.0000   0.0000
     0.0000   0.0000   0.0000   0.0000   0.0000   0.0000   0.0000   0.0000
     0.0000   0.0000   0.0000   0.0000   0.0000   0.0000   0.0000   0.0000
     0.0000   0.0000   0.0000   0.0000   0.0000   0.0000   0.0000   0.0000
     0.0000   0.0000   0.0000   0.0000   0.0000   0.0000   0.0000   0.0000
     0.0000   0.0000   0.0000   0.0000   0.0000   0.0000   0.0000   0.0000
     0.0000   0.0000   0.0000   0.0000   0.0000   0.0000   0.0000   0.0000
     0.0000   0.0000   0.0000   0.0000   0.0000   0.0000   0.0000   0.0000
     0.0000   0.0000   0.0000   0.0000   0.0000   0.0000   0.0000   0.0000
     0.0000   0.0000   0.0000   0.0000   0.0000   0.0000   0.0000   0.0000
     0.0000   0.0000   0.0000   0.0000   0.0000   0.0000   0.0000   0.0000
     0.0000   0.0000   0.0000   0.0000   0.0000   0.0000   0.0000   0.0000
     0.0000   0.0000   0.0000   0.0000   0.0000   0.0000   0.0000   0.0000
     0.0000   0.0000   0.0000   0.0000   0.0000   0.0000   0.0000   0.0000
     0.0000   0.0000   0.0000   0.0000   0.0000   0.0000   0.0000   0.0000
     0.0000   0.0000   0.0000   0.0000   0.0000   0.0000   0.0000   0.0000
     0.0000   0.0000   0.0000   0.0000   0.0000   0.0000   0.0000   0.0000
     0.0000   0.0000   0.0000   0.0000   0.0000   0.0000   0.0000   0.0000
     0.0000   0.0000   0.0000   0.0000   0.0000   0.0000   0.0000   0.0000
     0.0000   0.0000   0.0000   0.0000   0.0000   0.0000   0.0000   0.0000
     0.0000   0.0000   0.0000   0.0000   0.0000   0.0000   0.0000   0.0000
     0.0000   0.0000   0.0000   0.0000   0.0000   0.0000   0.0000   0.0000
     0.0000   0.0000   0.0000   0.0000   0.0000   0.0000   0.0000   0.0000
     0.0000   0.0000   0.0000   0.0000   0.0000   0.0000   0.0000   0.0000
     0.0000   0.0000   0.0000   0.0000   0.0000   0.0000   0.0000   0.0000
     0.0000   0.0000   0.0000   0.0000   0.0000   0.0000   0.0000   0.0000
     0.0000   0.0000   0.0000   0.0000   0.0000   0.0000   0.0000   0.0000
     0.0000   0.0000   0.0000   0.0000   0.0000   0.0000   0.0000   0.0000
     0.0000   0.0000   0.0000   0.0000   0.0000   0.0000   0.0000   0.0000
     0.0000   0.0000   0.0000   0.0000   0.0000   0.0000   0.0000   0.0000
     0.0000   0.0000   0.0000   0.0000   0.0000   0.0000   0.0000   0.0000
     0.0000   0.0000   0.0000   0.0000   0.0000   0.0000   0.0000   0.0000
     0.0000   0.0000   0.0000   0.0000   0.0000   0.0000   0.0000   0.0000
     0.0000   0.0000   0.0000   0.0000   0.0000   0.0000   0.0000   0.0000
     0.0000   0.0000   0.0000   0.0000   0.0000   0.0000   0.0000   0.0000
     0.0000   0.0000   0.0000   0.0000   0.0000   0.0000   0.0000   0.0000
     0.0000   0.0000   0.0000   0.0000   0.0000   0.0000   0.0000   0.0000
     0.0000   0.0000   0.0000   0.0000   0.0000   0.0000   0.0000   0.0000
     0.0000   0.0000   0.0000   0.0000   0.0000   0.0000   0.0000   0.0000
     0.0000   0.0000   0.0000   0.0000   0.0000   0.0000   0.0000   0.0000
     0.0000   0.0000   0.0000   0.0000   0.0000   0.0000   0.0000   0.0000
     0.0000   0.0000   0.0000   0.0000   0.0000   0.0000   0.0000   0.0000
     0.0000   0.0000   0.0000   0.0000   0.0000   0.0000   0.0000   0.0000
     0.0000   0.0000   0.0000   0.0000   0.0000   0.0000   0.0000   0.0000
     0.0000   0.0000   0.0000   0.0000   0.0000   0.0000   0.0000   0.0000
     0.0000   0.0000   0.0000   0.0000   0.0000   0.0000   0.0000   0.0000
     0.0000   0.0000   0.0000   0.0000   0.0000   0.0000   0.0000   0.0000
     0.0000   0.0000   0.0000   0.0000   0.0000   0.0000   0.0000   0.0000

          k =-0.5000-0.4811 0.0000 ( 59462 PWs)   bands (ev):

   -73.4619 -73.4616 -71.3727 -71.3723 -47.5877 -47.5864 -47.2962 -47.2957
   -46.9687 -46.9672 -45.3654 -45.3638 -45.0703 -45.0698 -44.8930 -44.8912
   -18.1284 -18.0944 -17.8459 -17.8081 -17.7745 -17.7060 -17.6694 -17.6354
   -17.6024 -17.5936 -17.4737 -17.3874 -11.6752 -11.5856 -11.4095 -11.2395
   -10.1115  -9.9817  -9.7448  -9.6102  -9.3858  -9.3593  -9.0925  -9.0150
    -8.8303  -8.7468  -8.4556  -8.3285  -8.2772  -8.1937  -8.0286  -7.8851
    -7.7897  -7.5916  -7.5054  -7.3893  -7.3263  -7.2504  -7.1551  -7.0416
    -6.9029  -6.8636  -6.7813  -6.6894  -6.6120  -6.4989  -6.4221  -6.3083
    -6.0627  -5.9661  -5.9098  -5.6740  -5.3020  -5.2029  -5.1255  -5.0181
    -4.9476  -4.9101  -4.1919  -4.1569  -4.0073  -3.8574  -3.8044  -3.7676
    -2.4934  -2.3715  -2.3227  -2.2759  -1.4770  -1.1190  -0.8658  -0.5222
    -0.3334  -0.2069  -0.1645  -0.0562   0.0434   0.1736   0.3646   0.4092
     0.4969   0.5549   0.6522   0.7254   0.7466   0.8776   0.9490   1.0605
     1.1444   1.2210   1.2793   1.3826   1.5731   1.6510   1.7032   1.7723
     1.8789   1.9818   2.0408   2.1183   2.2658   2.4124   2.5154   2.6043
     2.8008   2.8565   2.9321   3.0305   3.0491   3.1408   3.4290   3.4937
     3.6159   3.6690   3.6744   3.6882   3.7083   3.7952   4.1570   4.2105
     4.3425   4.4143   4.5919   4.6881   4.8875   4.9108   4.9883   5.0293
     5.3276   5.4023   5.4366   5.4836   5.6021   5.6636   5.6862   5.7396
     5.7834   5.8385   5.9784   6.0500   6.0658   6.1281   6.1391   6.2137
     6.3273   6.4307   6.4606   6.5378   6.7790   6.8572   6.9611   7.0119
     7.0312   7.0898   7.1128   7.1670   7.2723   7.3575   7.3997   7.4850
     7.5265   7.5817   7.6205   7.6817   7.7743   7.8227   7.9635   7.9945
     8.0478   8.1072   8.3667   8.4095   8.4833   8.5554   8.5868   8.6697
     8.8212   8.9101   9.0242   9.0465   9.0708   9.1148   9.1364   9.2102
     9.3255   9.3723   9.3784   9.4412   9.4841   9.5465   9.5596   9.6585
     9.6884   9.7993   9.8747   9.9350   9.9940  10.0384  10.1682  10.2144
    10.2960  10.3339  10.4195  10.5274  10.5475  10.5973  10.7544  10.8017
    10.8200  10.8696  10.9795  11.0139  11.0295  11.0944  11.1137  11.1708
    11.2042  11.2462  11.2989  11.3644  11.4340  11.4924  11.5451  11.5900
    11.6223  11.6335  11.6451  11.6687  11.6945  11.7272  11.8369  11.9519
    12.0441  12.0819  12.1066  12.1333  12.1588  12.2059  12.3498  12.3728
    12.4023  12.4172  12.4980  12.5806  12.6866  12.7612  12.7712  12.8636
    12.9711  13.0030  13.0217  13.0545  13.0685  13.1027  13.2248  13.2650
    13.3030  13.3199  13.3645  13.4141  13.4383  13.4742  13.4897  13.5351
    13.5979  13.6737  13.7465  13.8161  13.8741  13.8983  13.9110  13.9519
    13.9745  14.0532  14.1714  14.2892  14.3960  14.4456  14.5005  14.5713
    14.6010  14.6459  14.7385  14.8475  14.8576  14.9253  14.9532  15.0137
    15.0725  15.1034  15.1389  15.1558  15.2348  15.2943  15.4563  15.4983
    15.5071  15.5595  15.5726  15.6167  15.6308  15.7052  15.7175  15.7927
    15.8010  15.8861  15.9605  16.0170  16.0587  16.0971  16.1103  16.1338
    16.1617  16.1742  16.2504  16.3163  16.3421  16.3964  16.5370  16.5810
    16.5850  16.6381  16.6852  16.7326  16.7763  16.8013  16.8307  16.8677
    16.9004  16.9485  17.0700  17.1187  17.1461  17.1718  17.1864  17.2155
    17.2311  17.2799  17.3136  17.3547  17.4375  17.4895  17.5584  17.5694
    17.5971  17.6360  17.7916  17.8451  17.8527  17.8955  17.9360  17.9554
    18.0016  18.0158  18.0187  18.0713  18.1048  18.1437  18.1745  18.2220
    18.3095  18.3232  18.3530  18.3793  18.5039  18.5868  18.7990  18.8374
    18.9115  18.9629  18.9801  18.9863  19.0295  19.0348  19.0814  19.0942
    19.1525  19.2180  19.2592  19.2776  19.3222  19.3263  19.3502  19.4220
    19.4870  19.5718  19.6097  19.6773  19.7630  19.8236  19.8429  19.8783
    19.9664  20.0006  20.0232  20.0471  20.0581  20.1181  20.1481  20.2025
    20.2654  20.3136  20.3316  20.3524  20.4816  20.5243  20.6106  20.6823
    20.6984  20.7118  20.7756  20.7828  20.7986  20.8588  20.8895  20.9346
    20.9544  20.9939  21.0081  21.0624  21.0669  21.1179  21.2038  21.2438
    21.2653  21.2967  21.3934  21.4488  21.5058  21.5370  21.5680  21.6336
    21.6385  21.6801  21.7315  21.7811  21.7895  21.8438  21.8511  21.9094
    21.9205  21.9791  21.9873  22.0391  22.0591  22.1125  22.1746  22.2099
    22.2374  22.2685  22.2979  22.3236  22.3554  22.3719  22.3927  22.4468
    22.5751  22.6141  22.6517  22.6806  22.8001  22.8715  22.8823  22.9169
    22.9353  22.9500  22.9901  23.0090  23.1666  23.2024  23.2172  23.2543
    23.2697  23.2951  23.3182  23.3331  23.3530  23.4166  23.4595  23.4737
    23.5065  23.5246  23.5392  23.5691  23.6094  23.6987  23.7291  23.7758
    23.8713  23.8781  23.9041  23.9354  23.9648  23.9781  24.1247  24.1555
    24.1806  24.1919  24.2132  24.2236  24.2503  24.3021  24.4040  24.4319
    24.4505  24.4647  24.4957  24.5126  24.5363  24.5861  24.5993  24.6395
    24.6968  24.7394  24.7642  24.8049  24.8769  24.9391  24.9681  24.9917
    25.0285  25.0409  25.0492  25.1005  25.1485  25.2093  25.2779  25.3078
    25.3278  25.3703  25.3907  25.4080  25.4361  25.4754  25.4874  25.5455
    25.6342  25.6746  25.6957  25.7339  25.7746  25.8283  25.8765  25.9244
    25.9398  25.9679  25.9933  26.0220  26.0531  26.1116  26.1926  26.2449
    26.2895  26.3640  26.3716  26.3954  26.4340  26.4574  26.5035  26.5666
    26.6056  26.6763  26.7011  26.7201  26.7507  26.7775  26.8065  26.8736
    26.8829  26.9259  26.9382  26.9751  26.9919  27.0308  27.1080  27.1438
    27.1652  27.2275  27.3175  27.3873  27.4203  27.4549  27.4937  27.5075

     occupation numbers 
     1.0000   1.0000   1.0000   1.0000   1.0000   1.0000   1.0000   1.0000
     1.0000   1.0000   1.0000   1.0000   1.0000   1.0000   1.0000   1.0000
     1.0000   1.0000   1.0000   1.0000   1.0000   1.0000   1.0000   1.0000
     1.0000   1.0000   1.0000   1.0000   1.0000   1.0000   1.0000   1.0000
     1.0000   1.0000   1.0000   1.0000   1.0000   1.0000   1.0000   1.0000
     1.0000   1.0000   1.0000   1.0000   1.0000   1.0000   1.0000   1.0000
     1.0000   1.0000   1.0000   1.0000   1.0000   1.0000   1.0000   1.0000
     1.0000   1.0000   1.0000   1.0000   1.0000   1.0000   1.0000   1.0000
     1.0000   1.0000   1.0000   1.0000   0.0000   0.0000   0.0000   0.0000
     0.0000   0.0000   0.0000   0.0000   0.0000   0.0000   0.0000   0.0000
     0.0000   0.0000   0.0000   0.0000   0.0000   0.0000   0.0000   0.0000
     0.0000   0.0000   0.0000   0.0000   0.0000   0.0000   0.0000   0.0000
     0.0000   0.0000   0.0000   0.0000   0.0000   0.0000   0.0000   0.0000
     0.0000   0.0000   0.0000   0.0000   0.0000   0.0000   0.0000   0.0000
     0.0000   0.0000   0.0000   0.0000   0.0000   0.0000   0.0000   0.0000
     0.0000   0.0000   0.0000   0.0000   0.0000   0.0000   0.0000   0.0000
     0.0000   0.0000   0.0000   0.0000   0.0000   0.0000   0.0000   0.0000
     0.0000   0.0000   0.0000   0.0000   0.0000   0.0000   0.0000   0.0000
     0.0000   0.0000   0.0000   0.0000   0.0000   0.0000   0.0000   0.0000
     0.0000   0.0000   0.0000   0.0000   0.0000   0.0000   0.0000   0.0000
     0.0000   0.0000   0.0000   0.0000   0.0000   0.0000   0.0000   0.0000
     0.0000   0.0000   0.0000   0.0000   0.0000   0.0000   0.0000   0.0000
     0.0000   0.0000   0.0000   0.0000   0.0000   0.0000   0.0000   0.0000
     0.0000   0.0000   0.0000   0.0000   0.0000   0.0000   0.0000   0.0000
     0.0000   0.0000   0.0000   0.0000   0.0000   0.0000   0.0000   0.0000
     0.0000   0.0000   0.0000   0.0000   0.0000   0.0000   0.0000   0.0000
     0.0000   0.0000   0.0000   0.0000   0.0000   0.0000   0.0000   0.0000
     0.0000   0.0000   0.0000   0.0000   0.0000   0.0000   0.0000   0.0000
     0.0000   0.0000   0.0000   0.0000   0.0000   0.0000   0.0000   0.0000
     0.0000   0.0000   0.0000   0.0000   0.0000   0.0000   0.0000   0.0000
     0.0000   0.0000   0.0000   0.0000   0.0000   0.0000   0.0000   0.0000
     0.0000   0.0000   0.0000   0.0000   0.0000   0.0000   0.0000   0.0000
     0.0000   0.0000   0.0000   0.0000   0.0000   0.0000   0.0000   0.0000
     0.0000   0.0000   0.0000   0.0000   0.0000   0.0000   0.0000   0.0000
     0.0000   0.0000   0.0000   0.0000   0.0000   0.0000   0.0000   0.0000
     0.0000   0.0000   0.0000   0.0000   0.0000   0.0000   0.0000   0.0000
     0.0000   0.0000   0.0000   0.0000   0.0000   0.0000   0.0000   0.0000
     0.0000   0.0000   0.0000   0.0000   0.0000   0.0000   0.0000   0.0000
     0.0000   0.0000   0.0000   0.0000   0.0000   0.0000   0.0000   0.0000
     0.0000   0.0000   0.0000   0.0000   0.0000   0.0000   0.0000   0.0000
     0.0000   0.0000   0.0000   0.0000   0.0000   0.0000   0.0000   0.0000
     0.0000   0.0000   0.0000   0.0000   0.0000   0.0000   0.0000   0.0000
     0.0000   0.0000   0.0000   0.0000   0.0000   0.0000   0.0000   0.0000
     0.0000   0.0000   0.0000   0.0000   0.0000   0.0000   0.0000   0.0000
     0.0000   0.0000   0.0000   0.0000   0.0000   0.0000   0.0000   0.0000
     0.0000   0.0000   0.0000   0.0000   0.0000   0.0000   0.0000   0.0000
     0.0000   0.0000   0.0000   0.0000   0.0000   0.0000   0.0000   0.0000
     0.0000   0.0000   0.0000   0.0000   0.0000   0.0000   0.0000   0.0000
     0.0000   0.0000   0.0000   0.0000   0.0000   0.0000   0.0000   0.0000
     0.0000   0.0000   0.0000   0.0000   0.0000   0.0000   0.0000   0.0000
     0.0000   0.0000   0.0000   0.0000   0.0000   0.0000   0.0000   0.0000
     0.0000   0.0000   0.0000   0.0000   0.0000   0.0000   0.0000   0.0000
     0.0000   0.0000   0.0000   0.0000   0.0000   0.0000   0.0000   0.0000
     0.0000   0.0000   0.0000   0.0000   0.0000   0.0000   0.0000   0.0000
     0.0000   0.0000   0.0000   0.0000   0.0000   0.0000   0.0000   0.0000
     0.0000   0.0000   0.0000   0.0000   0.0000   0.0000   0.0000   0.0000
     0.0000   0.0000   0.0000   0.0000   0.0000   0.0000   0.0000   0.0000
     0.0000   0.0000   0.0000   0.0000   0.0000   0.0000   0.0000   0.0000
     0.0000   0.0000   0.0000   0.0000   0.0000   0.0000   0.0000   0.0000
     0.0000   0.0000   0.0000   0.0000   0.0000   0.0000   0.0000   0.0000
     0.0000   0.0000   0.0000   0.0000   0.0000   0.0000   0.0000   0.0000
     0.0000   0.0000   0.0000   0.0000   0.0000   0.0000   0.0000   0.0000
     0.0000   0.0000   0.0000   0.0000   0.0000   0.0000   0.0000   0.0000
     0.0000   0.0000   0.0000   0.0000   0.0000   0.0000   0.0000   0.0000
     0.0000   0.0000   0.0000   0.0000   0.0000   0.0000   0.0000   0.0000
     0.0000   0.0000   0.0000   0.0000   0.0000   0.0000   0.0000   0.0000
     0.0000   0.0000   0.0000   0.0000   0.0000   0.0000   0.0000   0.0000
     0.0000   0.0000   0.0000   0.0000   0.0000   0.0000   0.0000   0.0000
     0.0000   0.0000   0.0000   0.0000   0.0000   0.0000   0.0000   0.0000
     0.0000   0.0000   0.0000   0.0000   0.0000   0.0000   0.0000   0.0000
     0.0000   0.0000   0.0000   0.0000   0.0000   0.0000   0.0000   0.0000
     0.0000   0.0000   0.0000   0.0000   0.0000   0.0000   0.0000   0.0000
     0.0000   0.0000   0.0000   0.0000   0.0000   0.0000   0.0000   0.0000
     0.0000   0.0000   0.0000   0.0000   0.0000   0.0000   0.0000   0.0000
     0.0000   0.0000   0.0000   0.0000   0.0000   0.0000   0.0000   0.0000

          k =-0.3333-0.1925 0.0000 ( 59506 PWs)   bands (ev):

   -73.4619 -73.4615 -71.3727 -71.3723 -47.5882 -47.5859 -47.2963 -47.2956
   -46.9692 -46.9667 -45.3659 -45.3633 -45.0705 -45.0696 -44.8936 -44.8906
   -18.2614 -18.2343 -17.8182 -17.7397 -17.7268 -17.6981 -17.6689 -17.6509
   -17.5483 -17.5206 -17.4175 -17.3655 -11.6713 -11.6033 -11.3382 -11.2335
   -10.2032 -10.0798  -9.7576  -9.6292  -9.4736  -9.4276  -9.1176  -9.0815
    -8.8897  -8.8255  -8.4468  -8.3591  -8.1075  -7.9295  -7.8462  -7.7541
    -7.6914  -7.6428  -7.5797  -7.4684  -7.4105  -7.2494  -7.2053  -7.1783
    -7.1118  -6.8818  -6.8644  -6.7451  -6.6583  -6.4670  -6.2938  -6.2066
    -6.0707  -6.0102  -5.8614  -5.7583  -5.2990  -5.1509  -5.0787  -5.0313
    -5.0139  -4.9470  -4.1533  -4.1212  -3.9384  -3.8712  -3.8397  -3.7926
    -2.5346  -2.4492  -2.3037  -2.2832  -1.4292  -1.0468  -0.6475  -0.3856
    -0.1456  -0.0396  -0.0282   0.0907   0.1619   0.1995   0.3534   0.4396
     0.6257   0.6657   0.7802   0.8024   0.8295   0.9430   1.0412   1.1889
     1.2929   1.3936   1.5776   1.6997   1.7111   1.7960   1.8264   1.9240
     2.1089   2.1476   2.2167   2.3018   2.5206   2.5334   2.5938   2.6097
     2.7087   2.7530   2.8131   2.8610   3.0478   3.0519   3.1000   3.1424
     3.1512   3.1785   3.5865   3.6255   3.6885   3.7224   3.7834   3.8146
     3.8527   3.8942   4.0742   4.1702   4.2543   4.3798   4.6207   4.6762
     5.1255   5.2106   5.4367   5.4469   5.5052   5.5622   5.5922   5.6057
     5.6565   5.6939   6.1681   6.1803   6.2229   6.2360   6.2683   6.3188
     6.3207   6.4097   6.4711   6.5716   6.6920   6.7205   6.8060   6.8469
     7.0749   7.1459   7.1706   7.2403   7.7731   7.8227   7.8393   7.8867
     7.9340   7.9396   7.9590   8.0125   8.0669   8.1755   8.2287   8.2512
     8.3346   8.3884   8.4328   8.5036   8.5847   8.6284   8.6425   8.6991
     8.8006   8.8457   8.8609   8.9296   9.0523   9.1057   9.1470   9.1960
     9.2108   9.2727   9.4057   9.4455   9.4797   9.5209   9.5345   9.5658
     9.5923   9.6528   9.6685   9.7437   9.7627   9.8147   9.8849   9.9808
    10.0317  10.1115  10.3169  10.4059  10.4850  10.5740  10.7013  10.7396
    10.7858  10.8255  10.8316  10.8483  10.8831  10.9053  10.9191  10.9593
    10.9971  11.0347  11.0635  11.0801  11.1316  11.2107  11.4195  11.4598
    11.4863  11.5278  11.6243  11.6609  11.7571  11.8276  11.8424  11.8928
    11.9097  11.9775  12.0520  12.0994  12.1907  12.2456  12.3188  12.3906
    12.3961  12.4310  12.4802  12.4974  12.5030  12.5548  12.6854  12.7389
    12.8179  12.8958  13.1069  13.1273  13.1655  13.1940  13.2443  13.3187
    13.3807  13.4102  13.4368  13.4558  13.5481  13.5953  13.6851  13.7410
    13.7503  13.8190  14.0516  14.1006  14.1379  14.2216  14.2558  14.2604
    14.3112  14.3218  14.3364  14.3659  14.5079  14.5575  14.7936  14.8012
    14.8548  14.8928  14.9042  14.9583  14.9695  15.0025  15.0332  15.0617
    15.0742  15.1265  15.1377  15.1852  15.3548  15.4100  15.4297  15.4461
    15.4720  15.4834  15.5559  15.6025  15.6045  15.6440  15.7032  15.7950
    16.0945  16.1042  16.1607  16.2091  16.2265  16.2880  16.2932  16.2981
    16.3296  16.3485  16.4626  16.5066  16.5744  16.5800  16.6939  16.7308
    16.7655  16.8202  16.8970  16.9449  16.9582  16.9865  17.0196  17.0303
    17.0901  17.1196  17.1372  17.1533  17.1655  17.2035  17.2083  17.2565
    17.2760  17.3305  17.5028  17.5365  17.5612  17.6085  17.6234  17.6293
    17.6679  17.6834  17.7505  17.8128  17.9112  17.9586  17.9814  18.0420
    18.0619  18.1056  18.1331  18.1784  18.1807  18.2617  18.3689  18.4384
    18.4507  18.4634  18.5037  18.5618  18.6960  18.7551  18.7772  18.7955
    18.8257  18.8362  18.8589  18.8985  18.9247  18.9398  18.9635  19.0019
    19.0444  19.0652  19.1020  19.1106  19.2434  19.2700  19.3153  19.3458
    19.4419  19.4506  19.4619  19.4904  19.5146  19.5252  19.5547  19.6131
    19.6301  19.6771  19.7392  19.7840  19.8985  19.9604  20.2066  20.2533
    20.2881  20.2994  20.3207  20.3473  20.4020  20.4184  20.4603  20.4767
    20.5064  20.5171  20.5551  20.6054  20.6215  20.6734  20.8783  20.8802
    20.9175  20.9531  20.9802  21.0084  21.0511  21.0685  21.1069  21.1340
    21.1578  21.2016  21.3737  21.4230  21.4361  21.4598  21.4934  21.5238
    21.5937  21.6267  21.6518  21.6987  21.7164  21.7712  21.7974  21.8208
    21.8498  21.8656  22.0112  22.0659  22.1114  22.1450  22.1715  22.2066
    22.2392  22.2503  22.2840  22.3201  22.3288  22.3787  22.5066  22.5438
    22.6665  22.7158  22.7207  22.7585  22.8084  22.8342  22.8711  22.8913
    22.9182  22.9465  22.9536  23.0042  23.0238  23.0867  23.1212  23.1577
    23.1658  23.2248  23.2706  23.3073  23.3344  23.3488  23.4160  23.4975
    23.5623  23.5865  23.6271  23.6329  23.6405  23.6441  23.6794  23.7073
    23.7633  23.8006  23.8042  23.8235  23.8509  23.8522  24.0770  24.1006
    24.1363  24.1722  24.1874  24.2613  24.2813  24.3005  24.3046  24.3708
    24.3920  24.4050  24.4481  24.4643  24.5060  24.5552  24.5688  24.6076
    24.6134  24.6251  24.6597  24.6637  24.7030  24.7712  24.7728  24.8522
    24.8574  24.8986  24.9050  24.9648  24.9804  24.9906  25.0068  25.0473
    25.1631  25.2486  25.2651  25.3184  25.4071  25.4170  25.4664  25.4881
    25.5501  25.5631  25.6010  25.6427  25.7218  25.7553  25.8366  25.8529
    25.8751  25.8838  25.9337  25.9610  26.0300  26.0714  26.1637  26.1783
    26.2157  26.2204  26.2327  26.2898  26.3263  26.3651  26.4040  26.4767
    26.4896  26.5202  26.7087  26.7770  26.8027  26.8427  26.9260  26.9443
    26.9785  27.0207  27.0291  27.0601  27.0779  27.0924  27.2163  27.2353
    27.2699  27.2901  27.3178  27.3234  27.3533  27.3803  27.3989  27.4144

     occupation numbers 
     1.0000   1.0000   1.0000   1.0000   1.0000   1.0000   1.0000   1.0000
     1.0000   1.0000   1.0000   1.0000   1.0000   1.0000   1.0000   1.0000
     1.0000   1.0000   1.0000   1.0000   1.0000   1.0000   1.0000   1.0000
     1.0000   1.0000   1.0000   1.0000   1.0000   1.0000   1.0000   1.0000
     1.0000   1.0000   1.0000   1.0000   1.0000   1.0000   1.0000   1.0000
     1.0000   1.0000   1.0000   1.0000   1.0000   1.0000   1.0000   1.0000
     1.0000   1.0000   1.0000   1.0000   1.0000   1.0000   1.0000   1.0000
     1.0000   1.0000   1.0000   1.0000   1.0000   1.0000   1.0000   1.0000
     1.0000   1.0000   1.0000   1.0000   0.0000   0.0000   0.0000   0.0000
     0.0000   0.0000   0.0000   0.0000   0.0000   0.0000   0.0000   0.0000
     0.0000   0.0000   0.0000   0.0000   0.0000   0.0000   0.0000   0.0000
     0.0000   0.0000   0.0000   0.0000   0.0000   0.0000   0.0000   0.0000
     0.0000   0.0000   0.0000   0.0000   0.0000   0.0000   0.0000   0.0000
     0.0000   0.0000   0.0000   0.0000   0.0000   0.0000   0.0000   0.0000
     0.0000   0.0000   0.0000   0.0000   0.0000   0.0000   0.0000   0.0000
     0.0000   0.0000   0.0000   0.0000   0.0000   0.0000   0.0000   0.0000
     0.0000   0.0000   0.0000   0.0000   0.0000   0.0000   0.0000   0.0000
     0.0000   0.0000   0.0000   0.0000   0.0000   0.0000   0.0000   0.0000
     0.0000   0.0000   0.0000   0.0000   0.0000   0.0000   0.0000   0.0000
     0.0000   0.0000   0.0000   0.0000   0.0000   0.0000   0.0000   0.0000
     0.0000   0.0000   0.0000   0.0000   0.0000   0.0000   0.0000   0.0000
     0.0000   0.0000   0.0000   0.0000   0.0000   0.0000   0.0000   0.0000
     0.0000   0.0000   0.0000   0.0000   0.0000   0.0000   0.0000   0.0000
     0.0000   0.0000   0.0000   0.0000   0.0000   0.0000   0.0000   0.0000
     0.0000   0.0000   0.0000   0.0000   0.0000   0.0000   0.0000   0.0000
     0.0000   0.0000   0.0000   0.0000   0.0000   0.0000   0.0000   0.0000
     0.0000   0.0000   0.0000   0.0000   0.0000   0.0000   0.0000   0.0000
     0.0000   0.0000   0.0000   0.0000   0.0000   0.0000   0.0000   0.0000
     0.0000   0.0000   0.0000   0.0000   0.0000   0.0000   0.0000   0.0000
     0.0000   0.0000   0.0000   0.0000   0.0000   0.0000   0.0000   0.0000
     0.0000   0.0000   0.0000   0.0000   0.0000   0.0000   0.0000   0.0000
     0.0000   0.0000   0.0000   0.0000   0.0000   0.0000   0.0000   0.0000
     0.0000   0.0000   0.0000   0.0000   0.0000   0.0000   0.0000   0.0000
     0.0000   0.0000   0.0000   0.0000   0.0000   0.0000   0.0000   0.0000
     0.0000   0.0000   0.0000   0.0000   0.0000   0.0000   0.0000   0.0000
     0.0000   0.0000   0.0000   0.0000   0.0000   0.0000   0.0000   0.0000
     0.0000   0.0000   0.0000   0.0000   0.0000   0.0000   0.0000   0.0000
     0.0000   0.0000   0.0000   0.0000   0.0000   0.0000   0.0000   0.0000
     0.0000   0.0000   0.0000   0.0000   0.0000   0.0000   0.0000   0.0000
     0.0000   0.0000   0.0000   0.0000   0.0000   0.0000   0.0000   0.0000
     0.0000   0.0000   0.0000   0.0000   0.0000   0.0000   0.0000   0.0000
     0.0000   0.0000   0.0000   0.0000   0.0000   0.0000   0.0000   0.0000
     0.0000   0.0000   0.0000   0.0000   0.0000   0.0000   0.0000   0.0000
     0.0000   0.0000   0.0000   0.0000   0.0000   0.0000   0.0000   0.0000
     0.0000   0.0000   0.0000   0.0000   0.0000   0.0000   0.0000   0.0000
     0.0000   0.0000   0.0000   0.0000   0.0000   0.0000   0.0000   0.0000
     0.0000   0.0000   0.0000   0.0000   0.0000   0.0000   0.0000   0.0000
     0.0000   0.0000   0.0000   0.0000   0.0000   0.0000   0.0000   0.0000
     0.0000   0.0000   0.0000   0.0000   0.0000   0.0000   0.0000   0.0000
     0.0000   0.0000   0.0000   0.0000   0.0000   0.0000   0.0000   0.0000
     0.0000   0.0000   0.0000   0.0000   0.0000   0.0000   0.0000   0.0000
     0.0000   0.0000   0.0000   0.0000   0.0000   0.0000   0.0000   0.0000
     0.0000   0.0000   0.0000   0.0000   0.0000   0.0000   0.0000   0.0000
     0.0000   0.0000   0.0000   0.0000   0.0000   0.0000   0.0000   0.0000
     0.0000   0.0000   0.0000   0.0000   0.0000   0.0000   0.0000   0.0000
     0.0000   0.0000   0.0000   0.0000   0.0000   0.0000   0.0000   0.0000
     0.0000   0.0000   0.0000   0.0000   0.0000   0.0000   0.0000   0.0000
     0.0000   0.0000   0.0000   0.0000   0.0000   0.0000   0.0000   0.0000
     0.0000   0.0000   0.0000   0.0000   0.0000   0.0000   0.0000   0.0000
     0.0000   0.0000   0.0000   0.0000   0.0000   0.0000   0.0000   0.0000
     0.0000   0.0000   0.0000   0.0000   0.0000   0.0000   0.0000   0.0000
     0.0000   0.0000   0.0000   0.0000   0.0000   0.0000   0.0000   0.0000
     0.0000   0.0000   0.0000   0.0000   0.0000   0.0000   0.0000   0.0000
     0.0000   0.0000   0.0000   0.0000   0.0000   0.0000   0.0000   0.0000
     0.0000   0.0000   0.0000   0.0000   0.0000   0.0000   0.0000   0.0000
     0.0000   0.0000   0.0000   0.0000   0.0000   0.0000   0.0000   0.0000
     0.0000   0.0000   0.0000   0.0000   0.0000   0.0000   0.0000   0.0000
     0.0000   0.0000   0.0000   0.0000   0.0000   0.0000   0.0000   0.0000
     0.0000   0.0000   0.0000   0.0000   0.0000   0.0000   0.0000   0.0000
     0.0000   0.0000   0.0000   0.0000   0.0000   0.0000   0.0000   0.0000
     0.0000   0.0000   0.0000   0.0000   0.0000   0.0000   0.0000   0.0000
     0.0000   0.0000   0.0000   0.0000   0.0000   0.0000   0.0000   0.0000
     0.0000   0.0000   0.0000   0.0000   0.0000   0.0000   0.0000   0.0000
     0.0000   0.0000   0.0000   0.0000   0.0000   0.0000   0.0000   0.0000
     0.0000   0.0000   0.0000   0.0000   0.0000   0.0000   0.0000   0.0000

          k =-0.3333 0.0000 0.0000 ( 59517 PWs)   bands (ev):

   -73.4619 -73.4615 -71.3727 -71.3723 -47.5884 -47.5858 -47.2964 -47.2956
   -46.9694 -46.9665 -45.3661 -45.3630 -45.0706 -45.0695 -44.8938 -44.8903
   -18.3116 -18.2861 -17.8354 -17.7626 -17.6752 -17.6675 -17.6233 -17.6131
   -17.5603 -17.5358 -17.3877 -17.3596 -11.6541 -11.6107 -11.3140 -11.2421
   -10.1649 -10.0349  -9.8212  -9.6922  -9.3617  -9.3414  -9.2507  -9.2331
    -8.9568  -8.8836  -8.4760  -8.4010  -8.0262  -7.9335  -7.9051  -7.8225
    -7.6878  -7.6544  -7.5510  -7.5269  -7.4456  -7.3246  -7.2551  -7.1822
    -6.9471  -6.8688  -6.8152  -6.6306  -6.6093  -6.4578  -6.3590  -6.1788
    -6.0452  -6.0251  -5.9750  -5.4673  -5.2552  -5.1467  -5.1193  -5.0623
    -4.9913  -4.9609  -4.1304  -4.0880  -3.9837  -3.8559  -3.8405  -3.8039
    -2.5409  -2.4292  -2.3327  -2.2553  -1.3130  -0.9289  -0.8552  -0.5888
    -0.2797  -0.1455  -0.0009   0.1427   0.2706   0.2917   0.3371   0.4235
     0.5471   0.6485   0.6850   0.8328   1.1012   1.1954   1.2586   1.3594
     1.3632   1.4084   1.4882   1.5353   1.6000   1.6194   1.7805   1.8797
     2.1254   2.1678   2.2140   2.2478   2.3482   2.4192   2.4832   2.6726
     2.7860   2.8586   3.0267   3.0742   3.1122   3.1534   3.3906   3.4421
     3.4626   3.4848   3.5347   3.5730   3.6994   3.7446   3.7865   3.8855
     4.1185   4.1316   4.1731   4.2770   4.5289   4.5922   4.6891   4.8168
     5.0198   5.1106   5.1197   5.2263   5.2490   5.3205   5.4284   5.5114
     5.5587   5.6148   5.8128   5.8401   5.8731   5.8892   6.0196   6.0587
     6.2205   6.2725   6.3383   6.4008   6.4102   6.4740   7.0756   7.1487
     7.1522   7.1997   7.2864   7.3019   7.3101   7.3771   7.4193   7.4909
     7.6734   7.7145   7.7618   7.7844   7.7983   7.8329   8.0109   8.1005
     8.2304   8.3164   8.3947   8.4662   8.6314   8.6998   8.7325   8.8062
     8.8164   8.8512   9.0882   9.1191   9.1240   9.1380   9.2161   9.2929
     9.3293   9.3724   9.5585   9.5861   9.6146   9.6420   9.6777   9.6898
     9.7907   9.8229   9.9137   9.9669   9.9902  10.0215  10.0721  10.1065
    10.1940  10.2493  10.2899  10.3032  10.3354  10.3710  10.3997  10.4751
    10.5895  10.7168  10.7954  10.8658  10.9056  10.9414  11.0293  11.0874
    11.0922  11.1246  11.1420  11.1777  11.1931  11.2088  11.2356  11.2607
    11.4118  11.4468  11.5304  11.6328  11.7929  11.8349  11.8555  11.9277
    11.9381  11.9579  12.0011  12.0390  12.0540  12.0659  12.3125  12.3672
    12.6863  12.7282  12.7363  12.7544  12.7952  12.8071  12.8688  12.9236
    13.0517  13.1012  13.1235  13.1584  13.1940  13.2234  13.2909  13.3545
    13.7781  13.7870  13.8509  13.8584  13.9535  13.9672  14.0133  14.0230
    14.0471  14.0906  14.1157  14.1269  14.1608  14.2144  14.3674  14.4076
    14.4289  14.4615  14.4936  14.5258  14.6005  14.6457  14.6585  14.6843
    14.7058  14.7760  14.8044  14.8383  14.8807  14.9095  14.9402  14.9836
    14.9997  15.0468  15.0525  15.1706  15.2111  15.2423  15.2854  15.3136
    15.3824  15.4214  15.6340  15.6901  15.6995  15.7508  15.7813  15.8175
    15.8433  15.8615  15.9054  15.9768  16.0509  16.0948  16.1232  16.1509
    16.2002  16.2451  16.2940  16.3099  16.3432  16.3733  16.4354  16.4691
    16.4884  16.5051  16.6181  16.6849  16.8382  16.8809  16.9072  16.9388
    16.9734  16.9893  17.0721  17.0751  17.1881  17.2070  17.2535  17.2680
    17.3240  17.3634  17.4512  17.4800  17.5033  17.5267  17.5912  17.6378
    17.6502  17.7322  17.7488  17.7690  17.8951  17.9514  18.1420  18.1749
    18.1925  18.2231  18.3197  18.3531  18.3843  18.4004  18.4864  18.5207
    18.5241  18.5445  18.5515  18.5599  18.6037  18.6119  18.6810  18.6875
    18.7369  18.7422  18.7738  18.8242  18.8873  18.9401  19.0525  19.0828
    19.1319  19.1560  19.1611  19.2130  19.2306  19.2664  19.3433  19.3781
    19.4540  19.4776  19.5091  19.5127  19.5855  19.6610  19.9226  19.9976
    20.0718  20.0849  20.1196  20.1238  20.1611  20.1906  20.2081  20.2489
    20.3684  20.4089  20.4261  20.4586  20.4684  20.4880  20.5115  20.5334
    20.5416  20.5801  20.6059  20.6368  20.6799  20.7339  20.8914  20.9421
    20.9541  20.9898  21.0772  21.1126  21.1441  21.1664  21.1683  21.2199
    21.2259  21.3149  21.3308  21.3756  21.3927  21.4490  21.5280  21.5387
    21.5529  21.5864  21.6135  21.6233  21.6518  21.7141  21.7279  21.7703
    21.8267  21.8454  21.8535  21.8893  21.9165  21.9592  22.0304  22.0904
    22.1354  22.1465  22.1753  22.2109  22.3388  22.3713  22.3975  22.4184
    22.4306  22.4655  22.4862  22.5415  22.5710  22.5818  22.6224  22.6450
    22.6912  22.7167  22.8109  22.8415  22.8991  22.9076  22.9681  22.9749
    23.0343  23.0931  23.1231  23.1640  23.1990  23.2078  23.2486  23.2960
    23.4317  23.4713  23.4890  23.5402  23.6828  23.6904  23.7405  23.7719
    23.8635  23.8741  23.9246  23.9391  23.9478  23.9784  24.0134  24.0641
    24.0823  24.0887  24.1276  24.1624  24.1745  24.1922  24.2325  24.2578
    24.2843  24.3295  24.3637  24.4001  24.6109  24.6973  24.7143  24.7562
    24.7611  24.8039  24.8270  24.8568  24.8872  24.9153  24.9245  24.9469
    24.9762  24.9984  25.1133  25.1478  25.1848  25.2470  25.3244  25.3943
    25.3980  25.4213  25.4731  25.4779  25.5025  25.5208  25.5296  25.6130
    25.6706  25.7326  25.7444  25.7923  25.8076  25.8371  25.8639  25.8903
    25.9215  25.9661  26.0108  26.0528  26.0638  26.1104  26.1491  26.1754
    26.1839  26.2318  26.2907  26.3360  26.4029  26.4403  26.4742  26.5081
    26.5211  26.5752  26.5830  26.6202  26.8001  26.8275  26.8474  26.8534
    26.8876  26.8905  26.9607  27.0132  27.0397  27.0650  27.1182  27.1379
    27.1525  27.2157  27.2392  27.2886  27.2970  27.3196  27.3493  27.3634

     occupation numbers 
     1.0000   1.0000   1.0000   1.0000   1.0000   1.0000   1.0000   1.0000
     1.0000   1.0000   1.0000   1.0000   1.0000   1.0000   1.0000   1.0000
     1.0000   1.0000   1.0000   1.0000   1.0000   1.0000   1.0000   1.0000
     1.0000   1.0000   1.0000   1.0000   1.0000   1.0000   1.0000   1.0000
     1.0000   1.0000   1.0000   1.0000   1.0000   1.0000   1.0000   1.0000
     1.0000   1.0000   1.0000   1.0000   1.0000   1.0000   1.0000   1.0000
     1.0000   1.0000   1.0000   1.0000   1.0000   1.0000   1.0000   1.0000
     1.0000   1.0000   1.0000   1.0000   1.0000   1.0000   1.0000   1.0000
     1.0000   1.0000   1.0000   1.0000   0.0000   0.0000   0.0000   0.0000
     0.0000   0.0000   0.0000   0.0000   0.0000   0.0000   0.0000   0.0000
     0.0000   0.0000   0.0000   0.0000   0.0000   0.0000   0.0000   0.0000
     0.0000   0.0000   0.0000   0.0000   0.0000   0.0000   0.0000   0.0000
     0.0000   0.0000   0.0000   0.0000   0.0000   0.0000   0.0000   0.0000
     0.0000   0.0000   0.0000   0.0000   0.0000   0.0000   0.0000   0.0000
     0.0000   0.0000   0.0000   0.0000   0.0000   0.0000   0.0000   0.0000
     0.0000   0.0000   0.0000   0.0000   0.0000   0.0000   0.0000   0.0000
     0.0000   0.0000   0.0000   0.0000   0.0000   0.0000   0.0000   0.0000
     0.0000   0.0000   0.0000   0.0000   0.0000   0.0000   0.0000   0.0000
     0.0000   0.0000   0.0000   0.0000   0.0000   0.0000   0.0000   0.0000
     0.0000   0.0000   0.0000   0.0000   0.0000   0.0000   0.0000   0.0000
     0.0000   0.0000   0.0000   0.0000   0.0000   0.0000   0.0000   0.0000
     0.0000   0.0000   0.0000   0.0000   0.0000   0.0000   0.0000   0.0000
     0.0000   0.0000   0.0000   0.0000   0.0000   0.0000   0.0000   0.0000
     0.0000   0.0000   0.0000   0.0000   0.0000   0.0000   0.0000   0.0000
     0.0000   0.0000   0.0000   0.0000   0.0000   0.0000   0.0000   0.0000
     0.0000   0.0000   0.0000   0.0000   0.0000   0.0000   0.0000   0.0000
     0.0000   0.0000   0.0000   0.0000   0.0000   0.0000   0.0000   0.0000
     0.0000   0.0000   0.0000   0.0000   0.0000   0.0000   0.0000   0.0000
     0.0000   0.0000   0.0000   0.0000   0.0000   0.0000   0.0000   0.0000
     0.0000   0.0000   0.0000   0.0000   0.0000   0.0000   0.0000   0.0000
     0.0000   0.0000   0.0000   0.0000   0.0000   0.0000   0.0000   0.0000
     0.0000   0.0000   0.0000   0.0000   0.0000   0.0000   0.0000   0.0000
     0.0000   0.0000   0.0000   0.0000   0.0000   0.0000   0.0000   0.0000
     0.0000   0.0000   0.0000   0.0000   0.0000   0.0000   0.0000   0.0000
     0.0000   0.0000   0.0000   0.0000   0.0000   0.0000   0.0000   0.0000
     0.0000   0.0000   0.0000   0.0000   0.0000   0.0000   0.0000   0.0000
     0.0000   0.0000   0.0000   0.0000   0.0000   0.0000   0.0000   0.0000
     0.0000   0.0000   0.0000   0.0000   0.0000   0.0000   0.0000   0.0000
     0.0000   0.0000   0.0000   0.0000   0.0000   0.0000   0.0000   0.0000
     0.0000   0.0000   0.0000   0.0000   0.0000   0.0000   0.0000   0.0000
     0.0000   0.0000   0.0000   0.0000   0.0000   0.0000   0.0000   0.0000
     0.0000   0.0000   0.0000   0.0000   0.0000   0.0000   0.0000   0.0000
     0.0000   0.0000   0.0000   0.0000   0.0000   0.0000   0.0000   0.0000
     0.0000   0.0000   0.0000   0.0000   0.0000   0.0000   0.0000   0.0000
     0.0000   0.0000   0.0000   0.0000   0.0000   0.0000   0.0000   0.0000
     0.0000   0.0000   0.0000   0.0000   0.0000   0.0000   0.0000   0.0000
     0.0000   0.0000   0.0000   0.0000   0.0000   0.0000   0.0000   0.0000
     0.0000   0.0000   0.0000   0.0000   0.0000   0.0000   0.0000   0.0000
     0.0000   0.0000   0.0000   0.0000   0.0000   0.0000   0.0000   0.0000
     0.0000   0.0000   0.0000   0.0000   0.0000   0.0000   0.0000   0.0000
     0.0000   0.0000   0.0000   0.0000   0.0000   0.0000   0.0000   0.0000
     0.0000   0.0000   0.0000   0.0000   0.0000   0.0000   0.0000   0.0000
     0.0000   0.0000   0.0000   0.0000   0.0000   0.0000   0.0000   0.0000
     0.0000   0.0000   0.0000   0.0000   0.0000   0.0000   0.0000   0.0000
     0.0000   0.0000   0.0000   0.0000   0.0000   0.0000   0.0000   0.0000
     0.0000   0.0000   0.0000   0.0000   0.0000   0.0000   0.0000   0.0000
     0.0000   0.0000   0.0000   0.0000   0.0000   0.0000   0.0000   0.0000
     0.0000   0.0000   0.0000   0.0000   0.0000   0.0000   0.0000   0.0000
     0.0000   0.0000   0.0000   0.0000   0.0000   0.0000   0.0000   0.0000
     0.0000   0.0000   0.0000   0.0000   0.0000   0.0000   0.0000   0.0000
     0.0000   0.0000   0.0000   0.0000   0.0000   0.0000   0.0000   0.0000
     0.0000   0.0000   0.0000   0.0000   0.0000   0.0000   0.0000   0.0000
     0.0000   0.0000   0.0000   0.0000   0.0000   0.0000   0.0000   0.0000
     0.0000   0.0000   0.0000   0.0000   0.0000   0.0000   0.0000   0.0000
     0.0000   0.0000   0.0000   0.0000   0.0000   0.0000   0.0000   0.0000
     0.0000   0.0000   0.0000   0.0000   0.0000   0.0000   0.0000   0.0000
     0.0000   0.0000   0.0000   0.0000   0.0000   0.0000   0.0000   0.0000
     0.0000   0.0000   0.0000   0.0000   0.0000   0.0000   0.0000   0.0000
     0.0000   0.0000   0.0000   0.0000   0.0000   0.0000   0.0000   0.0000
     0.0000   0.0000   0.0000   0.0000   0.0000   0.0000   0.0000   0.0000
     0.0000   0.0000   0.0000   0.0000   0.0000   0.0000   0.0000   0.0000
     0.0000   0.0000   0.0000   0.0000   0.0000   0.0000   0.0000   0.0000
     0.0000   0.0000   0.0000   0.0000   0.0000   0.0000   0.0000   0.0000
     0.0000   0.0000   0.0000   0.0000   0.0000   0.0000   0.0000   0.0000
     0.0000   0.0000   0.0000   0.0000   0.0000   0.0000   0.0000   0.0000

          k =-0.3333 0.1925 0.0000 ( 59506 PWs)   bands (ev):

   -73.4619 -73.4615 -71.3727 -71.3723 -47.5882 -47.5859 -47.2963 -47.2956
   -46.9692 -46.9667 -45.3659 -45.3633 -45.0705 -45.0696 -44.8936 -44.8906
   -18.2614 -18.2342 -17.8182 -17.7399 -17.7268 -17.6982 -17.6688 -17.6509
   -17.5482 -17.5206 -17.4176 -17.3654 -11.6713 -11.6033 -11.3382 -11.2335
   -10.2032 -10.0797  -9.7575  -9.6293  -9.4735  -9.4277  -9.1172  -9.0817
    -8.8898  -8.8253  -8.4470  -8.3592  -8.1074  -7.9296  -7.8455  -7.7534
    -7.6921  -7.6435  -7.5800  -7.4681  -7.4105  -7.2499  -7.2052  -7.1780
    -7.1118  -6.8815  -6.8644  -6.7452  -6.6586  -6.4668  -6.2934  -6.2068
    -6.0706  -6.0103  -5.8616  -5.7582  -5.2991  -5.1509  -5.0787  -5.0312
    -5.0140  -4.9469  -4.1533  -4.1212  -3.9383  -3.8712  -3.8396  -3.7926
    -2.5346  -2.4492  -2.3037  -2.2832  -1.4293  -1.0469  -0.6474  -0.3855
    -0.1456  -0.0396  -0.0282   0.0908   0.1622   0.1992   0.3534   0.4396
     0.6256   0.6658   0.7801   0.8024   0.8293   0.9430   1.0413   1.1891
     1.2931   1.3936   1.5775   1.6997   1.7111   1.7959   1.8267   1.9240
     2.1084   2.1481   2.2171   2.3017   2.5201   2.5339   2.5942   2.6093
     2.7087   2.7531   2.8131   2.8609   3.0476   3.0519   3.1004   3.1420
     3.1510   3.1789   3.5865   3.6254   3.6884   3.7225   3.7832   3.8147
     3.8527   3.8942   4.0743   4.1702   4.2543   4.3798   4.6207   4.6762
     5.1254   5.2107   5.4365   5.4471   5.5052   5.5622   5.5922   5.6056
     5.6566   5.6939   6.1692   6.1797   6.2217   6.2367   6.2680   6.3191
     6.3210   6.4096   6.4707   6.5720   6.6922   6.7203   6.8058   6.8470
     7.0748   7.1460   7.1709   7.2402   7.7731   7.8227   7.8392   7.8868
     7.9341   7.9396   7.9591   8.0125   8.0670   8.1755   8.2288   8.2510
     8.3347   8.3881   8.4325   8.5037   8.5846   8.6283   8.6425   8.6992
     8.8006   8.8457   8.8609   8.9296   9.0523   9.1057   9.1469   9.1961
     9.2108   9.2727   9.4057   9.4456   9.4797   9.5208   9.5345   9.5659
     9.5925   9.6526   9.6685   9.7437   9.7626   9.8146   9.8850   9.9808
    10.0317  10.1116  10.3169  10.4059  10.4850  10.5739  10.7011  10.7398
    10.7857  10.8255  10.8319  10.8484  10.8830  10.9052  10.9191  10.9594
    10.9971  11.0347  11.0638  11.0798  11.1316  11.2107  11.4196  11.4600
    11.4863  11.5278  11.6243  11.6609  11.7572  11.8276  11.8424  11.8930
    11.9097  11.9775  12.0520  12.0994  12.1906  12.2456  12.3188  12.3905
    12.3960  12.4310  12.4802  12.4974  12.5030  12.5547  12.6853  12.7389
    12.8179  12.8957  13.1068  13.1274  13.1656  13.1939  13.2442  13.3187
    13.3806  13.4102  13.4368  13.4557  13.5481  13.5953  13.6851  13.7409
    13.7503  13.8190  14.0516  14.1006  14.1379  14.2216  14.2556  14.2606
    14.3113  14.3217  14.3364  14.3659  14.5080  14.5575  14.7935  14.8012
    14.8548  14.8928  14.9042  14.9583  14.9695  15.0025  15.0332  15.0618
    15.0742  15.1265  15.1378  15.1852  15.3548  15.4100  15.4298  15.4461
    15.4718  15.4836  15.5559  15.6024  15.6045  15.6440  15.7032  15.7950
    16.0945  16.1044  16.1607  16.2091  16.2267  16.2881  16.2931  16.2980
    16.3297  16.3485  16.4626  16.5066  16.5745  16.5799  16.6938  16.7307
    16.7656  16.8201  16.8970  16.9448  16.9582  16.9865  17.0196  17.0303
    17.0902  17.1196  17.1372  17.1533  17.1655  17.2036  17.2082  17.2566
    17.2760  17.3306  17.5028  17.5365  17.5614  17.6085  17.6234  17.6293
    17.6679  17.6835  17.7505  17.8128  17.9111  17.9586  17.9815  18.0420
    18.0621  18.1055  18.1330  18.1784  18.1806  18.2618  18.3689  18.4384
    18.4507  18.4635  18.5037  18.5620  18.6960  18.7552  18.7771  18.7953
    18.8258  18.8361  18.8591  18.8986  18.9247  18.9400  18.9635  19.0017
    19.0443  19.0652  19.1021  19.1104  19.2432  19.2702  19.3154  19.3457
    19.4419  19.4505  19.4621  19.4904  19.5147  19.5250  19.5548  19.6131
    19.6301  19.6770  19.7393  19.7841  19.8984  19.9603  20.2067  20.2534
    20.2879  20.2994  20.3207  20.3474  20.4019  20.4183  20.4602  20.4767
    20.5063  20.5172  20.5552  20.6054  20.6215  20.6735  20.8782  20.8804
    20.9175  20.9531  20.9803  21.0082  21.0508  21.0688  21.1070  21.1339
    21.1578  21.2016  21.3738  21.4230  21.4360  21.4596  21.4933  21.5241
    21.5937  21.6268  21.6519  21.6986  21.7164  21.7712  21.7974  21.8208
    21.8498  21.8656  22.0111  22.0659  22.1114  22.1449  22.1714  22.2067
    22.2389  22.2505  22.2841  22.3201  22.3287  22.3787  22.5066  22.5439
    22.6665  22.7158  22.7206  22.7586  22.8084  22.8342  22.8710  22.8913
    22.9183  22.9465  22.9539  23.0041  23.0238  23.0864  23.1208  23.1580
    23.1660  23.2247  23.2705  23.3073  23.3345  23.3488  23.4159  23.4976
    23.5623  23.5865  23.6270  23.6329  23.6405  23.6441  23.6795  23.7074
    23.7633  23.8007  23.8041  23.8234  23.8508  23.8522  24.0770  24.1007
    24.1363  24.1723  24.1874  24.2614  24.2813  24.3004  24.3046  24.3708
    24.3920  24.4054  24.4482  24.4642  24.5059  24.5552  24.5689  24.6078
    24.6131  24.6251  24.6597  24.6638  24.7030  24.7712  24.7727  24.8521
    24.8573  24.8987  24.9050  24.9648  24.9802  24.9906  25.0069  25.0473
    25.1631  25.2486  25.2650  25.3184  25.4071  25.4170  25.4664  25.4881
    25.5501  25.5632  25.6010  25.6428  25.7226  25.7545  25.8359  25.8528
    25.8754  25.8840  25.9339  25.9610  26.0300  26.0713  26.1636  26.1785
    26.2156  26.2205  26.2325  26.2898  26.3262  26.3650  26.4041  26.4767
    26.4897  26.5202  26.7085  26.7770  26.8026  26.8428  26.9260  26.9443
    26.9786  27.0207  27.0291  27.0600  27.0779  27.0924  27.2164  27.2354
    27.2699  27.2902  27.3178  27.3235  27.3534  27.3804  27.3988  27.4144

     occupation numbers 
     1.0000   1.0000   1.0000   1.0000   1.0000   1.0000   1.0000   1.0000
     1.0000   1.0000   1.0000   1.0000   1.0000   1.0000   1.0000   1.0000
     1.0000   1.0000   1.0000   1.0000   1.0000   1.0000   1.0000   1.0000
     1.0000   1.0000   1.0000   1.0000   1.0000   1.0000   1.0000   1.0000
     1.0000   1.0000   1.0000   1.0000   1.0000   1.0000   1.0000   1.0000
     1.0000   1.0000   1.0000   1.0000   1.0000   1.0000   1.0000   1.0000
     1.0000   1.0000   1.0000   1.0000   1.0000   1.0000   1.0000   1.0000
     1.0000   1.0000   1.0000   1.0000   1.0000   1.0000   1.0000   1.0000
     1.0000   1.0000   1.0000   1.0000   0.0000   0.0000   0.0000   0.0000
     0.0000   0.0000   0.0000   0.0000   0.0000   0.0000   0.0000   0.0000
     0.0000   0.0000   0.0000   0.0000   0.0000   0.0000   0.0000   0.0000
     0.0000   0.0000   0.0000   0.0000   0.0000   0.0000   0.0000   0.0000
     0.0000   0.0000   0.0000   0.0000   0.0000   0.0000   0.0000   0.0000
     0.0000   0.0000   0.0000   0.0000   0.0000   0.0000   0.0000   0.0000
     0.0000   0.0000   0.0000   0.0000   0.0000   0.0000   0.0000   0.0000
     0.0000   0.0000   0.0000   0.0000   0.0000   0.0000   0.0000   0.0000
     0.0000   0.0000   0.0000   0.0000   0.0000   0.0000   0.0000   0.0000
     0.0000   0.0000   0.0000   0.0000   0.0000   0.0000   0.0000   0.0000
     0.0000   0.0000   0.0000   0.0000   0.0000   0.0000   0.0000   0.0000
     0.0000   0.0000   0.0000   0.0000   0.0000   0.0000   0.0000   0.0000
     0.0000   0.0000   0.0000   0.0000   0.0000   0.0000   0.0000   0.0000
     0.0000   0.0000   0.0000   0.0000   0.0000   0.0000   0.0000   0.0000
     0.0000   0.0000   0.0000   0.0000   0.0000   0.0000   0.0000   0.0000
     0.0000   0.0000   0.0000   0.0000   0.0000   0.0000   0.0000   0.0000
     0.0000   0.0000   0.0000   0.0000   0.0000   0.0000   0.0000   0.0000
     0.0000   0.0000   0.0000   0.0000   0.0000   0.0000   0.0000   0.0000
     0.0000   0.0000   0.0000   0.0000   0.0000   0.0000   0.0000   0.0000
     0.0000   0.0000   0.0000   0.0000   0.0000   0.0000   0.0000   0.0000
     0.0000   0.0000   0.0000   0.0000   0.0000   0.0000   0.0000   0.0000
     0.0000   0.0000   0.0000   0.0000   0.0000   0.0000   0.0000   0.0000
     0.0000   0.0000   0.0000   0.0000   0.0000   0.0000   0.0000   0.0000
     0.0000   0.0000   0.0000   0.0000   0.0000   0.0000   0.0000   0.0000
     0.0000   0.0000   0.0000   0.0000   0.0000   0.0000   0.0000   0.0000
     0.0000   0.0000   0.0000   0.0000   0.0000   0.0000   0.0000   0.0000
     0.0000   0.0000   0.0000   0.0000   0.0000   0.0000   0.0000   0.0000
     0.0000   0.0000   0.0000   0.0000   0.0000   0.0000   0.0000   0.0000
     0.0000   0.0000   0.0000   0.0000   0.0000   0.0000   0.0000   0.0000
     0.0000   0.0000   0.0000   0.0000   0.0000   0.0000   0.0000   0.0000
     0.0000   0.0000   0.0000   0.0000   0.0000   0.0000   0.0000   0.0000
     0.0000   0.0000   0.0000   0.0000   0.0000   0.0000   0.0000   0.0000
     0.0000   0.0000   0.0000   0.0000   0.0000   0.0000   0.0000   0.0000
     0.0000   0.0000   0.0000   0.0000   0.0000   0.0000   0.0000   0.0000
     0.0000   0.0000   0.0000   0.0000   0.0000   0.0000   0.0000   0.0000
     0.0000   0.0000   0.0000   0.0000   0.0000   0.0000   0.0000   0.0000
     0.0000   0.0000   0.0000   0.0000   0.0000   0.0000   0.0000   0.0000
     0.0000   0.0000   0.0000   0.0000   0.0000   0.0000   0.0000   0.0000
     0.0000   0.0000   0.0000   0.0000   0.0000   0.0000   0.0000   0.0000
     0.0000   0.0000   0.0000   0.0000   0.0000   0.0000   0.0000   0.0000
     0.0000   0.0000   0.0000   0.0000   0.0000   0.0000   0.0000   0.0000
     0.0000   0.0000   0.0000   0.0000   0.0000   0.0000   0.0000   0.0000
     0.0000   0.0000   0.0000   0.0000   0.0000   0.0000   0.0000   0.0000
     0.0000   0.0000   0.0000   0.0000   0.0000   0.0000   0.0000   0.0000
     0.0000   0.0000   0.0000   0.0000   0.0000   0.0000   0.0000   0.0000
     0.0000   0.0000   0.0000   0.0000   0.0000   0.0000   0.0000   0.0000
     0.0000   0.0000   0.0000   0.0000   0.0000   0.0000   0.0000   0.0000
     0.0000   0.0000   0.0000   0.0000   0.0000   0.0000   0.0000   0.0000
     0.0000   0.0000   0.0000   0.0000   0.0000   0.0000   0.0000   0.0000
     0.0000   0.0000   0.0000   0.0000   0.0000   0.0000   0.0000   0.0000
     0.0000   0.0000   0.0000   0.0000   0.0000   0.0000   0.0000   0.0000
     0.0000   0.0000   0.0000   0.0000   0.0000   0.0000   0.0000   0.0000
     0.0000   0.0000   0.0000   0.0000   0.0000   0.0000   0.0000   0.0000
     0.0000   0.0000   0.0000   0.0000   0.0000   0.0000   0.0000   0.0000
     0.0000   0.0000   0.0000   0.0000   0.0000   0.0000   0.0000   0.0000
     0.0000   0.0000   0.0000   0.0000   0.0000   0.0000   0.0000   0.0000
     0.0000   0.0000   0.0000   0.0000   0.0000   0.0000   0.0000   0.0000
     0.0000   0.0000   0.0000   0.0000   0.0000   0.0000   0.0000   0.0000
     0.0000   0.0000   0.0000   0.0000   0.0000   0.0000   0.0000   0.0000
     0.0000   0.0000   0.0000   0.0000   0.0000   0.0000   0.0000   0.0000
     0.0000   0.0000   0.0000   0.0000   0.0000   0.0000   0.0000   0.0000
     0.0000   0.0000   0.0000   0.0000   0.0000   0.0000   0.0000   0.0000
     0.0000   0.0000   0.0000   0.0000   0.0000   0.0000   0.0000   0.0000
     0.0000   0.0000   0.0000   0.0000   0.0000   0.0000   0.0000   0.0000
     0.0000   0.0000   0.0000   0.0000   0.0000   0.0000   0.0000   0.0000
     0.0000   0.0000   0.0000   0.0000   0.0000   0.0000   0.0000   0.0000
     0.0000   0.0000   0.0000   0.0000   0.0000   0.0000   0.0000   0.0000

          k =-0.3333-0.7698 0.0000 ( 59462 PWs)   bands (ev):

   -73.4619 -73.4616 -71.3727 -71.3723 -47.5877 -47.5864 -47.2962 -47.2957
   -46.9687 -46.9672 -45.3654 -45.3638 -45.0703 -45.0698 -44.8930 -44.8912
   -18.1283 -18.0943 -17.8461 -17.8083 -17.7746 -17.7059 -17.6693 -17.6354
   -17.6023 -17.5936 -17.4738 -17.3873 -11.6752 -11.5857 -11.4095 -11.2395
   -10.1114  -9.9816  -9.7448  -9.6102  -9.3857  -9.3593  -9.0926  -9.0150
    -8.8302  -8.7469  -8.4556  -8.3285  -8.2772  -8.1937  -8.0286  -7.8851
    -7.7897  -7.5916  -7.5054  -7.3893  -7.3263  -7.2503  -7.1551  -7.0416
    -6.9029  -6.8636  -6.7814  -6.6895  -6.6120  -6.4989  -6.4221  -6.3083
    -6.0626  -5.9661  -5.9098  -5.6740  -5.3020  -5.2029  -5.1255  -5.0181
    -4.9476  -4.9101  -4.1919  -4.1570  -4.0073  -3.8574  -3.8044  -3.7676
    -2.4933  -2.3716  -2.3227  -2.2759  -1.4771  -1.1191  -0.8657  -0.5221
    -0.3335  -0.2070  -0.1645  -0.0562   0.0434   0.1736   0.3645   0.4093
     0.4969   0.5549   0.6523   0.7254   0.7467   0.8776   0.9489   1.0605
     1.1444   1.2211   1.2794   1.3827   1.5731   1.6510   1.7033   1.7722
     1.8789   1.9818   2.0407   2.1183   2.2658   2.4124   2.5154   2.6044
     2.8008   2.8564   2.9322   3.0305   3.0490   3.1408   3.4291   3.4937
     3.6159   3.6689   3.6744   3.6882   3.7083   3.7951   4.1571   4.2106
     4.3425   4.4143   4.5919   4.6881   4.8875   4.9108   4.9883   5.0293
     5.3276   5.4023   5.4366   5.4836   5.6021   5.6635   5.6862   5.7397
     5.7834   5.8385   5.9784   6.0499   6.0658   6.1281   6.1391   6.2137
     6.3273   6.4307   6.4605   6.5377   6.7790   6.8572   6.9612   7.0119
     7.0311   7.0899   7.1128   7.1670   7.2723   7.3575   7.3997   7.4850
     7.5265   7.5817   7.6205   7.6817   7.7743   7.8227   7.9636   7.9945
     8.0478   8.1071   8.3667   8.4095   8.4833   8.5555   8.5867   8.6697
     8.8213   8.9102   9.0242   9.0465   9.0708   9.1149   9.1364   9.2101
     9.3255   9.3723   9.3784   9.4413   9.4840   9.5465   9.5596   9.6586
     9.6884   9.7994   9.8747   9.9350   9.9940  10.0384  10.1682  10.2144
    10.2959  10.3339  10.4195  10.5274  10.5475  10.5973  10.7544  10.8016
    10.8200  10.8695  10.9795  11.0139  11.0295  11.0944  11.1137  11.1708
    11.2042  11.2462  11.2989  11.3644  11.4340  11.4924  11.5450  11.5901
    11.6223  11.6335  11.6451  11.6687  11.6945  11.7272  11.8369  11.9519
    12.0441  12.0819  12.1066  12.1333  12.1589  12.2059  12.3498  12.3728
    12.4022  12.4172  12.4979  12.5806  12.6866  12.7612  12.7711  12.8635
    12.9711  13.0031  13.0217  13.0544  13.0685  13.1028  13.2248  13.2650
    13.3030  13.3199  13.3645  13.4141  13.4383  13.4742  13.4896  13.5351
    13.5980  13.6737  13.7465  13.8162  13.8740  13.8983  13.9110  13.9519
    13.9746  14.0533  14.1715  14.2893  14.3960  14.4456  14.5005  14.5714
    14.6010  14.6460  14.7385  14.8475  14.8576  14.9253  14.9532  15.0137
    15.0726  15.1034  15.1389  15.1558  15.2348  15.2943  15.4564  15.4983
    15.5072  15.5595  15.5726  15.6167  15.6309  15.7052  15.7175  15.7927
    15.8010  15.8861  15.9605  16.0169  16.0587  16.0972  16.1103  16.1338
    16.1618  16.1742  16.2504  16.3162  16.3421  16.3964  16.5370  16.5810
    16.5850  16.6381  16.6852  16.7326  16.7763  16.8013  16.8307  16.8677
    16.9004  16.9485  17.0700  17.1186  17.1461  17.1718  17.1864  17.2155
    17.2311  17.2800  17.3136  17.3547  17.4376  17.4896  17.5584  17.5694
    17.5971  17.6360  17.7916  17.8451  17.8527  17.8955  17.9361  17.9554
    18.0016  18.0159  18.0187  18.0713  18.1048  18.1438  18.1744  18.2220
    18.3095  18.3232  18.3530  18.3793  18.5038  18.5868  18.7990  18.8374
    18.9116  18.9629  18.9801  18.9862  19.0295  19.0348  19.0814  19.0942
    19.1525  19.2181  19.2592  19.2776  19.3222  19.3262  19.3502  19.4221
    19.4871  19.5718  19.6098  19.6773  19.7631  19.8237  19.8430  19.8784
    19.9663  20.0007  20.0231  20.0471  20.0581  20.1180  20.1481  20.2025
    20.2654  20.3136  20.3316  20.3524  20.4816  20.5244  20.6106  20.6823
    20.6985  20.7118  20.7757  20.7829  20.7986  20.8587  20.8895  20.9346
    20.9545  20.9939  21.0082  21.0625  21.0669  21.1179  21.2038  21.2438
    21.2653  21.2967  21.3934  21.4488  21.5058  21.5370  21.5680  21.6336
    21.6385  21.6801  21.7315  21.7811  21.7895  21.8438  21.8511  21.9094
    21.9205  21.9791  21.9873  22.0391  22.0591  22.1125  22.1745  22.2098
    22.2373  22.2684  22.2980  22.3236  22.3554  22.3719  22.3927  22.4468
    22.5751  22.6141  22.6518  22.6806  22.8001  22.8714  22.8822  22.9168
    22.9354  22.9500  22.9900  23.0091  23.1667  23.2024  23.2172  23.2543
    23.2697  23.2950  23.3182  23.3330  23.3529  23.4166  23.4595  23.4737
    23.5065  23.5246  23.5392  23.5691  23.6094  23.6987  23.7291  23.7758
    23.8713  23.8781  23.9040  23.9354  23.9647  23.9781  24.1247  24.1554
    24.1806  24.1919  24.2132  24.2236  24.2503  24.3020  24.4040  24.4319
    24.4505  24.4647  24.4957  24.5126  24.5363  24.5862  24.5993  24.6395
    24.6968  24.7394  24.7642  24.8049  24.8768  24.9391  24.9681  24.9917
    25.0285  25.0409  25.0492  25.1005  25.1485  25.2093  25.2779  25.3078
    25.3278  25.3703  25.3907  25.4080  25.4361  25.4754  25.4875  25.5455
    25.6342  25.6747  25.6958  25.7339  25.7745  25.8283  25.8765  25.9243
    25.9398  25.9679  25.9934  26.0220  26.0531  26.1116  26.1925  26.2449
    26.2895  26.3640  26.3716  26.3954  26.4340  26.4574  26.5034  26.5666
    26.6056  26.6763  26.7011  26.7202  26.7507  26.7775  26.8065  26.8736
    26.8829  26.9259  26.9382  26.9751  26.9919  27.0308  27.1081  27.1438
    27.1653  27.2275  27.3176  27.3873  27.4203  27.4550  27.4937  27.5074

     occupation numbers 
     1.0000   1.0000   1.0000   1.0000   1.0000   1.0000   1.0000   1.0000
     1.0000   1.0000   1.0000   1.0000   1.0000   1.0000   1.0000   1.0000
     1.0000   1.0000   1.0000   1.0000   1.0000   1.0000   1.0000   1.0000
     1.0000   1.0000   1.0000   1.0000   1.0000   1.0000   1.0000   1.0000
     1.0000   1.0000   1.0000   1.0000   1.0000   1.0000   1.0000   1.0000
     1.0000   1.0000   1.0000   1.0000   1.0000   1.0000   1.0000   1.0000
     1.0000   1.0000   1.0000   1.0000   1.0000   1.0000   1.0000   1.0000
     1.0000   1.0000   1.0000   1.0000   1.0000   1.0000   1.0000   1.0000
     1.0000   1.0000   1.0000   1.0000   0.0000   0.0000   0.0000   0.0000
     0.0000   0.0000   0.0000   0.0000   0.0000   0.0000   0.0000   0.0000
     0.0000   0.0000   0.0000   0.0000   0.0000   0.0000   0.0000   0.0000
     0.0000   0.0000   0.0000   0.0000   0.0000   0.0000   0.0000   0.0000
     0.0000   0.0000   0.0000   0.0000   0.0000   0.0000   0.0000   0.0000
     0.0000   0.0000   0.0000   0.0000   0.0000   0.0000   0.0000   0.0000
     0.0000   0.0000   0.0000   0.0000   0.0000   0.0000   0.0000   0.0000
     0.0000   0.0000   0.0000   0.0000   0.0000   0.0000   0.0000   0.0000
     0.0000   0.0000   0.0000   0.0000   0.0000   0.0000   0.0000   0.0000
     0.0000   0.0000   0.0000   0.0000   0.0000   0.0000   0.0000   0.0000
     0.0000   0.0000   0.0000   0.0000   0.0000   0.0000   0.0000   0.0000
     0.0000   0.0000   0.0000   0.0000   0.0000   0.0000   0.0000   0.0000
     0.0000   0.0000   0.0000   0.0000   0.0000   0.0000   0.0000   0.0000
     0.0000   0.0000   0.0000   0.0000   0.0000   0.0000   0.0000   0.0000
     0.0000   0.0000   0.0000   0.0000   0.0000   0.0000   0.0000   0.0000
     0.0000   0.0000   0.0000   0.0000   0.0000   0.0000   0.0000   0.0000
     0.0000   0.0000   0.0000   0.0000   0.0000   0.0000   0.0000   0.0000
     0.0000   0.0000   0.0000   0.0000   0.0000   0.0000   0.0000   0.0000
     0.0000   0.0000   0.0000   0.0000   0.0000   0.0000   0.0000   0.0000
     0.0000   0.0000   0.0000   0.0000   0.0000   0.0000   0.0000   0.0000
     0.0000   0.0000   0.0000   0.0000   0.0000   0.0000   0.0000   0.0000
     0.0000   0.0000   0.0000   0.0000   0.0000   0.0000   0.0000   0.0000
     0.0000   0.0000   0.0000   0.0000   0.0000   0.0000   0.0000   0.0000
     0.0000   0.0000   0.0000   0.0000   0.0000   0.0000   0.0000   0.0000
     0.0000   0.0000   0.0000   0.0000   0.0000   0.0000   0.0000   0.0000
     0.0000   0.0000   0.0000   0.0000   0.0000   0.0000   0.0000   0.0000
     0.0000   0.0000   0.0000   0.0000   0.0000   0.0000   0.0000   0.0000
     0.0000   0.0000   0.0000   0.0000   0.0000   0.0000   0.0000   0.0000
     0.0000   0.0000   0.0000   0.0000   0.0000   0.0000   0.0000   0.0000
     0.0000   0.0000   0.0000   0.0000   0.0000   0.0000   0.0000   0.0000
     0.0000   0.0000   0.0000   0.0000   0.0000   0.0000   0.0000   0.0000
     0.0000   0.0000   0.0000   0.0000   0.0000   0.0000   0.0000   0.0000
     0.0000   0.0000   0.0000   0.0000   0.0000   0.0000   0.0000   0.0000
     0.0000   0.0000   0.0000   0.0000   0.0000   0.0000   0.0000   0.0000
     0.0000   0.0000   0.0000   0.0000   0.0000   0.0000   0.0000   0.0000
     0.0000   0.0000   0.0000   0.0000   0.0000   0.0000   0.0000   0.0000
     0.0000   0.0000   0.0000   0.0000   0.0000   0.0000   0.0000   0.0000
     0.0000   0.0000   0.0000   0.0000   0.0000   0.0000   0.0000   0.0000
     0.0000   0.0000   0.0000   0.0000   0.0000   0.0000   0.0000   0.0000
     0.0000   0.0000   0.0000   0.0000   0.0000   0.0000   0.0000   0.0000
     0.0000   0.0000   0.0000   0.0000   0.0000   0.0000   0.0000   0.0000
     0.0000   0.0000   0.0000   0.0000   0.0000   0.0000   0.0000   0.0000
     0.0000   0.0000   0.0000   0.0000   0.0000   0.0000   0.0000   0.0000
     0.0000   0.0000   0.0000   0.0000   0.0000   0.0000   0.0000   0.0000
     0.0000   0.0000   0.0000   0.0000   0.0000   0.0000   0.0000   0.0000
     0.0000   0.0000   0.0000   0.0000   0.0000   0.0000   0.0000   0.0000
     0.0000   0.0000   0.0000   0.0000   0.0000   0.0000   0.0000   0.0000
     0.0000   0.0000   0.0000   0.0000   0.0000   0.0000   0.0000   0.0000
     0.0000   0.0000   0.0000   0.0000   0.0000   0.0000   0.0000   0.0000
     0.0000   0.0000   0.0000   0.0000   0.0000   0.0000   0.0000   0.0000
     0.0000   0.0000   0.0000   0.0000   0.0000   0.0000   0.0000   0.0000
     0.0000   0.0000   0.0000   0.0000   0.0000   0.0000   0.0000   0.0000
     0.0000   0.0000   0.0000   0.0000   0.0000   0.0000   0.0000   0.0000
     0.0000   0.0000   0.0000   0.0000   0.0000   0.0000   0.0000   0.0000
     0.0000   0.0000   0.0000   0.0000   0.0000   0.0000   0.0000   0.0000
     0.0000   0.0000   0.0000   0.0000   0.0000   0.0000   0.0000   0.0000
     0.0000   0.0000   0.0000   0.0000   0.0000   0.0000   0.0000   0.0000
     0.0000   0.0000   0.0000   0.0000   0.0000   0.0000   0.0000   0.0000
     0.0000   0.0000   0.0000   0.0000   0.0000   0.0000   0.0000   0.0000
     0.0000   0.0000   0.0000   0.0000   0.0000   0.0000   0.0000   0.0000
     0.0000   0.0000   0.0000   0.0000   0.0000   0.0000   0.0000   0.0000
     0.0000   0.0000   0.0000   0.0000   0.0000   0.0000   0.0000   0.0000
     0.0000   0.0000   0.0000   0.0000   0.0000   0.0000   0.0000   0.0000
     0.0000   0.0000   0.0000   0.0000   0.0000   0.0000   0.0000   0.0000
     0.0000   0.0000   0.0000   0.0000   0.0000   0.0000   0.0000   0.0000
     0.0000   0.0000   0.0000   0.0000   0.0000   0.0000   0.0000   0.0000
     0.0000   0.0000   0.0000   0.0000   0.0000   0.0000   0.0000   0.0000

          k =-0.3333-0.5774 0.0000 ( 59388 PWs)   bands (ev):

   -73.4619 -73.4616 -71.3726 -71.3723 -47.5872 -47.5869 -47.2961 -47.2958
   -46.9681 -46.9678 -45.3648 -45.3645 -45.0702 -45.0699 -44.8923 -44.8920
   -17.9686 -17.9683 -17.9246 -17.9239 -17.7701 -17.6868 -17.6776 -17.6753
   -17.6741 -17.5347 -17.5345 -17.4175 -11.6694 -11.5151 -11.5134 -11.2515
    -9.8807  -9.8694  -9.7429  -9.7272  -9.1816  -9.1543  -9.0735  -9.0715
    -8.9302  -8.9094  -8.5575  -8.5543  -8.2903  -8.2626  -8.1467  -8.0294
    -7.9049  -7.6247  -7.3787  -7.3421  -7.2393  -7.1851  -7.0173  -6.9635
    -6.8953  -6.7364  -6.7041  -6.6449  -6.6073  -6.5634  -6.4792  -6.3633
    -5.9997  -5.8277  -5.7581  -5.7501  -5.2394  -5.2085  -5.2027  -5.0026
    -4.9175  -4.8849  -4.1871  -4.1810  -4.0837  -3.8567  -3.7808  -3.7528
    -2.3580  -2.3396  -2.3347  -2.3069  -1.3246  -1.3126  -0.9806  -0.9690
    -0.4354  -0.3174  -0.2514  -0.2412  -0.1241  -0.1141   0.3021   0.3057
     0.4603   0.4657   0.5954   0.6797   0.8798   0.9789   1.0829   1.1140
     1.1157   1.1380   1.1572   1.1593   1.2649   1.2710   1.4510   1.4542
     1.9816   2.0172   2.0871   2.1670   2.1830   2.2753   2.2926   2.3105
     2.6381   2.7032   3.2626   3.3008   3.3750   3.4041   3.9204   3.9449
     3.9726   3.9953   4.1019   4.1244   4.4716   4.4958   4.5408   4.5550
     4.6873   4.7348   5.0936   5.0964   5.1821   5.1878   5.3215   5.3647
     5.5240   5.5903   5.5994   5.6813   5.6977   5.7026   5.8102   5.8151
     5.8809   5.9043   5.9260   5.9309   6.0484   6.0886   6.1031   6.1545
     6.2444   6.2664   6.4559   6.4915   6.5140   6.5493   6.6157   6.6407
     6.6790   6.7481   6.7818   6.7919   6.7988   6.8245   6.8365   7.0612
     7.2763   7.2851   7.3081   7.3083   7.3582   7.3604   7.4186   7.4296
     7.4457   7.5004   7.6798   7.6892   7.7507   7.7572   8.2888   8.3111
     9.2882   9.3082   9.3174   9.3667   9.3748   9.3793   9.4246   9.4738
     9.5763   9.5820   9.6376   9.6419   9.6788   9.7221   9.7851   9.7856
     9.8279   9.8311  10.1963  10.2078  10.2515  10.2631  10.4298  10.4478
    10.5498  10.5546  10.5625  10.5704  10.5737  10.5824  10.7353  10.8609
    10.8629  10.8811  10.9301  10.9458  11.2162  11.2254  11.2268  11.2643
    11.2707  11.3869  11.4975  11.5103  11.5400  11.6050  11.6138  11.6198
    11.8777  11.9076  12.0282  12.0646  12.0719  12.0815  12.1581  12.1649
    12.1691  12.2028  12.3250  12.3844  12.4173  12.5047  12.5420  12.5624
    12.5740  12.5934  12.7308  12.7735  12.8129  12.8605  12.8634  12.8927
    12.9119  12.9166  12.9201  12.9432  12.9892  12.9899  13.2082  13.2212
    13.2877  13.3015  13.6116  13.6694  13.6725  13.7281  13.7495  13.7880
    13.8087  13.8599  13.8681  13.8766  13.9627  13.9924  14.0088  14.0503
    14.1811  14.1930  14.2229  14.2326  14.2746  14.3148  14.3154  14.3524
    14.3614  14.3970  14.4039  14.4471  14.7059  14.7461  14.8772  14.8871
    14.9037  14.9267  14.9302  14.9460  14.9544  14.9631  14.9788  15.0204
    15.1210  15.1921  15.2056  15.2327  15.2656  15.2782  15.3632  15.3779
    15.3781  15.4077  15.4175  15.4236  15.7104  15.7224  15.7326  15.7617
    15.7626  15.7824  15.8054  15.8273  15.9111  15.9144  15.9806  15.9818
    16.0403  16.0414  16.0981  16.0986  16.2980  16.3344  16.9537  16.9569
    17.0035  17.0067  17.0628  17.0972  17.2720  17.2750  17.3168  17.3195
    17.4283  17.4789  17.5661  17.5716  17.6049  17.6099  17.7049  17.7524
    18.0182  18.0226  18.0234  18.0796  18.0820  18.0880  18.0925  18.0958
    18.1057  18.1245  18.1288  18.1742  18.2015  18.2470  18.3532  18.3633
    18.4178  18.4275  18.6518  18.6552  18.6764  18.6907  18.6910  18.7209
    18.9955  19.0309  19.0500  19.0534  19.0869  19.0899  19.2437  19.2702
    19.3589  19.3595  19.3807  19.3812  19.4599  19.4910  19.4967  19.5338
    19.5734  19.5779  19.5883  19.6444  19.6447  19.6517  19.6846  19.6853
    19.7756  19.8269  20.1748  20.1876  20.2663  20.2794  20.3477  20.3902
    20.3956  20.4124  20.4622  20.4632  20.4772  20.5444  20.5535  20.5631
    20.6028  20.6201  20.7113  20.7646  20.7873  20.7943  20.8632  20.8663
    21.0513  21.0546  21.1248  21.1274  21.1420  21.1522  21.1544  21.1827
    21.2462  21.2516  21.3795  21.3797  21.4108  21.4112  21.4134  21.5735
    21.5887  21.5997  21.7495  21.7806  21.7905  21.7990  21.8377  21.8422
    22.0822  22.0906  22.1050  22.1394  22.1486  22.1609  22.1982  22.2408
    22.4215  22.4220  22.4819  22.5224  22.5225  22.5501  22.6266  22.6389
    22.7029  22.7057  22.7095  22.7140  22.7747  22.7804  22.8306  22.8329
    22.9394  22.9399  22.9538  22.9671  23.0057  23.0684  23.1659  23.1687
    23.1702  23.2105  23.2107  23.2300  23.3116  23.3545  23.5104  23.5144
    23.5867  23.5911  23.7021  23.7178  23.7647  23.8145  23.8334  23.8370
    23.8534  23.9171  24.0776  24.1229  24.1259  24.1708  24.1725  24.2428
    24.3211  24.3249  24.3322  24.3343  24.3689  24.3704  24.3930  24.4050
    24.4610  24.5210  24.6218  24.6969  24.8024  24.8366  24.8606  24.8914
    24.9600  24.9740  25.0193  25.0301  25.0335  25.0533  25.0680  25.0961
    25.3607  25.3653  25.4212  25.4226  25.4481  25.4619  25.4816  25.4921
    25.5017  25.5023  25.5198  25.5275  25.5334  25.5654  25.5662  25.5707
    25.8027  25.8633  25.8739  25.8898  25.9353  25.9713  25.9897  25.9908
    25.9994  26.0253  26.0284  26.0551  26.0667  26.0823  26.1056  26.1167
    26.1861  26.2203  26.3291  26.3338  26.3994  26.4033  26.5802  26.5898
    26.6119  26.6453  26.6526  26.6561  26.6862  26.7047  26.7535  26.7878
    26.9413  26.9538  27.0041  27.0178  27.0463  27.0645  27.0768  27.1049
    27.1362  27.1414  27.2131  27.2337  27.3184  27.3242  27.3504  27.3521

     occupation numbers 
     1.0000   1.0000   1.0000   1.0000   1.0000   1.0000   1.0000   1.0000
     1.0000   1.0000   1.0000   1.0000   1.0000   1.0000   1.0000   1.0000
     1.0000   1.0000   1.0000   1.0000   1.0000   1.0000   1.0000   1.0000
     1.0000   1.0000   1.0000   1.0000   1.0000   1.0000   1.0000   1.0000
     1.0000   1.0000   1.0000   1.0000   1.0000   1.0000   1.0000   1.0000
     1.0000   1.0000   1.0000   1.0000   1.0000   1.0000   1.0000   1.0000
     1.0000   1.0000   1.0000   1.0000   1.0000   1.0000   1.0000   1.0000
     1.0000   1.0000   1.0000   1.0000   1.0000   1.0000   1.0000   1.0000
     1.0000   1.0000   1.0000   1.0000   0.0000   0.0000   0.0000   0.0000
     0.0000   0.0000   0.0000   0.0000   0.0000   0.0000   0.0000   0.0000
     0.0000   0.0000   0.0000   0.0000   0.0000   0.0000   0.0000   0.0000
     0.0000   0.0000   0.0000   0.0000   0.0000   0.0000   0.0000   0.0000
     0.0000   0.0000   0.0000   0.0000   0.0000   0.0000   0.0000   0.0000
     0.0000   0.0000   0.0000   0.0000   0.0000   0.0000   0.0000   0.0000
     0.0000   0.0000   0.0000   0.0000   0.0000   0.0000   0.0000   0.0000
     0.0000   0.0000   0.0000   0.0000   0.0000   0.0000   0.0000   0.0000
     0.0000   0.0000   0.0000   0.0000   0.0000   0.0000   0.0000   0.0000
     0.0000   0.0000   0.0000   0.0000   0.0000   0.0000   0.0000   0.0000
     0.0000   0.0000   0.0000   0.0000   0.0000   0.0000   0.0000   0.0000
     0.0000   0.0000   0.0000   0.0000   0.0000   0.0000   0.0000   0.0000
     0.0000   0.0000   0.0000   0.0000   0.0000   0.0000   0.0000   0.0000
     0.0000   0.0000   0.0000   0.0000   0.0000   0.0000   0.0000   0.0000
     0.0000   0.0000   0.0000   0.0000   0.0000   0.0000   0.0000   0.0000
     0.0000   0.0000   0.0000   0.0000   0.0000   0.0000   0.0000   0.0000
     0.0000   0.0000   0.0000   0.0000   0.0000   0.0000   0.0000   0.0000
     0.0000   0.0000   0.0000   0.0000   0.0000   0.0000   0.0000   0.0000
     0.0000   0.0000   0.0000   0.0000   0.0000   0.0000   0.0000   0.0000
     0.0000   0.0000   0.0000   0.0000   0.0000   0.0000   0.0000   0.0000
     0.0000   0.0000   0.0000   0.0000   0.0000   0.0000   0.0000   0.0000
     0.0000   0.0000   0.0000   0.0000   0.0000   0.0000   0.0000   0.0000
     0.0000   0.0000   0.0000   0.0000   0.0000   0.0000   0.0000   0.0000
     0.0000   0.0000   0.0000   0.0000   0.0000   0.0000   0.0000   0.0000
     0.0000   0.0000   0.0000   0.0000   0.0000   0.0000   0.0000   0.0000
     0.0000   0.0000   0.0000   0.0000   0.0000   0.0000   0.0000   0.0000
     0.0000   0.0000   0.0000   0.0000   0.0000   0.0000   0.0000   0.0000
     0.0000   0.0000   0.0000   0.0000   0.0000   0.0000   0.0000   0.0000
     0.0000   0.0000   0.0000   0.0000   0.0000   0.0000   0.0000   0.0000
     0.0000   0.0000   0.0000   0.0000   0.0000   0.0000   0.0000   0.0000
     0.0000   0.0000   0.0000   0.0000   0.0000   0.0000   0.0000   0.0000
     0.0000   0.0000   0.0000   0.0000   0.0000   0.0000   0.0000   0.0000
     0.0000   0.0000   0.0000   0.0000   0.0000   0.0000   0.0000   0.0000
     0.0000   0.0000   0.0000   0.0000   0.0000   0.0000   0.0000   0.0000
     0.0000   0.0000   0.0000   0.0000   0.0000   0.0000   0.0000   0.0000
     0.0000   0.0000   0.0000   0.0000   0.0000   0.0000   0.0000   0.0000
     0.0000   0.0000   0.0000   0.0000   0.0000   0.0000   0.0000   0.0000
     0.0000   0.0000   0.0000   0.0000   0.0000   0.0000   0.0000   0.0000
     0.0000   0.0000   0.0000   0.0000   0.0000   0.0000   0.0000   0.0000
     0.0000   0.0000   0.0000   0.0000   0.0000   0.0000   0.0000   0.0000
     0.0000   0.0000   0.0000   0.0000   0.0000   0.0000   0.0000   0.0000
     0.0000   0.0000   0.0000   0.0000   0.0000   0.0000   0.0000   0.0000
     0.0000   0.0000   0.0000   0.0000   0.0000   0.0000   0.0000   0.0000
     0.0000   0.0000   0.0000   0.0000   0.0000   0.0000   0.0000   0.0000
     0.0000   0.0000   0.0000   0.0000   0.0000   0.0000   0.0000   0.0000
     0.0000   0.0000   0.0000   0.0000   0.0000   0.0000   0.0000   0.0000
     0.0000   0.0000   0.0000   0.0000   0.0000   0.0000   0.0000   0.0000
     0.0000   0.0000   0.0000   0.0000   0.0000   0.0000   0.0000   0.0000
     0.0000   0.0000   0.0000   0.0000   0.0000   0.0000   0.0000   0.0000
     0.0000   0.0000   0.0000   0.0000   0.0000   0.0000   0.0000   0.0000
     0.0000   0.0000   0.0000   0.0000   0.0000   0.0000   0.0000   0.0000
     0.0000   0.0000   0.0000   0.0000   0.0000   0.0000   0.0000   0.0000
     0.0000   0.0000   0.0000   0.0000   0.0000   0.0000   0.0000   0.0000
     0.0000   0.0000   0.0000   0.0000   0.0000   0.0000   0.0000   0.0000
     0.0000   0.0000   0.0000   0.0000   0.0000   0.0000   0.0000   0.0000
     0.0000   0.0000   0.0000   0.0000   0.0000   0.0000   0.0000   0.0000
     0.0000   0.0000   0.0000   0.0000   0.0000   0.0000   0.0000   0.0000
     0.0000   0.0000   0.0000   0.0000   0.0000   0.0000   0.0000   0.0000
     0.0000   0.0000   0.0000   0.0000   0.0000   0.0000   0.0000   0.0000
     0.0000   0.0000   0.0000   0.0000   0.0000   0.0000   0.0000   0.0000
     0.0000   0.0000   0.0000   0.0000   0.0000   0.0000   0.0000   0.0000
     0.0000   0.0000   0.0000   0.0000   0.0000   0.0000   0.0000   0.0000
     0.0000   0.0000   0.0000   0.0000   0.0000   0.0000   0.0000   0.0000
     0.0000   0.0000   0.0000   0.0000   0.0000   0.0000   0.0000   0.0000
     0.0000   0.0000   0.0000   0.0000   0.0000   0.0000   0.0000   0.0000
     0.0000   0.0000   0.0000   0.0000   0.0000   0.0000   0.0000   0.0000
     0.0000   0.0000   0.0000   0.0000   0.0000   0.0000   0.0000   0.0000

          k =-0.3333-0.3849 0.0000 ( 59462 PWs)   bands (ev):

   -73.4619 -73.4616 -71.3727 -71.3723 -47.5877 -47.5864 -47.2962 -47.2957
   -46.9687 -46.9672 -45.3654 -45.3638 -45.0703 -45.0698 -44.8930 -44.8912
   -18.1284 -18.0944 -17.8463 -17.8081 -17.7734 -17.7073 -17.6689 -17.6351
   -17.6029 -17.5936 -17.4735 -17.3875 -11.6752 -11.5857 -11.4095 -11.2395
   -10.1114  -9.9816  -9.7449  -9.6101  -9.3861  -9.3595  -9.0931  -9.0145
    -8.8299  -8.7456  -8.4571  -8.3298  -8.2765  -8.1922  -8.0288  -7.8852
    -7.7892  -7.5919  -7.5055  -7.3914  -7.3258  -7.2494  -7.1547  -7.0412
    -6.9027  -6.8641  -6.7805  -6.6896  -6.6129  -6.4973  -6.4239  -6.3085
    -6.0625  -5.9659  -5.9091  -5.6744  -5.3031  -5.2020  -5.1252  -5.0181
    -4.9474  -4.9104  -4.1918  -4.1573  -4.0072  -3.8573  -3.8044  -3.7677
    -2.4936  -2.3708  -2.3232  -2.2759  -1.4765  -1.1185  -0.8669  -0.5238
    -0.3326  -0.2059  -0.1642  -0.0564   0.0426   0.1736   0.3658   0.4073
     0.4977   0.5538   0.6525   0.7265   0.7465   0.8794   0.9534   1.0641
     1.1403   1.2180   1.2754   1.3782   1.5745   1.6521   1.7038   1.7742
     1.8778   1.9868   2.0406   2.1230   2.2619   2.4092   2.5154   2.6046
     2.8045   2.8597   2.9314   3.0283   3.0443   3.1339   3.4307   3.4955
     3.6149   3.6660   3.6763   3.6911   3.7083   3.7993   4.1546   4.2082
     4.3423   4.4144   4.5941   4.6889   4.8910   4.9098   4.9918   5.0289
     5.3260   5.4005   5.4355   5.4829   5.6025   5.6653   5.6902   5.7415
     5.7803   5.8348   5.9757   6.0487   6.0661   6.1269   6.1394   6.2109
     6.3324   6.4350   6.4614   6.5397   6.7693   6.8485   6.9580   7.0109
     7.0339   7.0950   7.1183   7.1732   7.2728   7.3577   7.4024   7.4872
     7.5246   7.5797   7.6208   7.6828   7.7701   7.8186   7.9674   7.9911
     8.0520   8.1023   8.3618   8.4054   8.4884   8.5597   8.5890   8.6687
     8.8203   8.9087   9.0248   9.0472   9.0721   9.1148   9.1363   9.2103
     9.3292   9.3734   9.3803   9.4423   9.4860   9.5464   9.5585   9.6579
     9.6861   9.7974   9.8706   9.9313   9.9936  10.0371  10.1727  10.2189
    10.2949  10.3327  10.4190  10.5267  10.5459  10.5963  10.7535  10.8047
    10.8183  10.8726  10.9827  11.0175  11.0333  11.0970  11.1095  11.1738
    11.2014  11.2508  11.2941  11.3596  11.4325  11.4906  11.5481  11.5906
    11.6227  11.6357  11.6471  11.6698  11.6954  11.7312  11.8324  11.9478
    12.0365  12.0826  12.1011  12.1342  12.1595  12.2050  12.3514  12.3715
    12.4033  12.4162  12.4972  12.5798  12.6869  12.7619  12.7702  12.8632
    12.9693  13.0035  13.0199  13.0510  13.0687  13.0969  13.2271  13.2681
    13.3055  13.3235  13.3664  13.4165  13.4371  13.4764  13.4873  13.5392
    13.6024  13.6768  13.7497  13.8188  13.8732  13.8975  13.9106  13.9506
    13.9711  14.0493  14.1722  14.2905  14.3975  14.4473  14.4982  14.5698
    14.6001  14.6460  14.7396  14.8474  14.8538  14.9234  14.9554  15.0180
    15.0727  15.1033  15.1390  15.1551  15.2345  15.2941  15.4557  15.4975
    15.5066  15.5586  15.5720  15.6177  15.6292  15.7081  15.7157  15.7901
    15.8019  15.8895  15.9571  16.0138  16.0596  16.0967  16.1099  16.1322
    16.1618  16.1717  16.2538  16.3201  16.3432  16.3979  16.5343  16.5790
    16.5842  16.6361  16.6849  16.7321  16.7777  16.8012  16.8324  16.8689
    16.8991  16.9455  17.0721  17.1194  17.1510  17.1716  17.1895  17.2164
    17.2320  17.2835  17.3122  17.3531  17.4344  17.4860  17.5567  17.5740
    17.5958  17.6389  17.7897  17.8442  17.8520  17.8951  17.9391  17.9560
    18.0043  18.0169  18.0192  18.0723  18.1018  18.1406  18.1703  18.2174
    18.3126  18.3238  18.3557  18.3797  18.5036  18.5863  18.7995  18.8379
    18.9101  18.9614  18.9796  18.9862  19.0322  19.0388  19.0781  19.1006
    19.1576  19.2219  19.2595  19.2774  19.3233  19.3253  19.3470  19.4192
    19.4844  19.5691  19.6107  19.6793  19.7624  19.8232  19.8415  19.8789
    19.9637  19.9996  20.0208  20.0460  20.0568  20.1164  20.1421  20.1963
    20.2706  20.3121  20.3368  20.3504  20.4850  20.5283  20.6104  20.6825
    20.6982  20.7129  20.7744  20.7821  20.8005  20.8561  20.8886  20.9344
    20.9535  20.9923  21.0063  21.0624  21.0666  21.1188  21.2072  21.2431
    21.2693  21.2957  21.3906  21.4455  21.5038  21.5351  21.5743  21.6347
    21.6433  21.6798  21.7321  21.7850  21.7944  21.8457  21.8574  21.9069
    21.9186  21.9786  21.9831  22.0380  22.0602  22.1138  22.1775  22.2071
    22.2396  22.2663  22.2944  22.3255  22.3545  22.3717  22.3931  22.4492
    22.5743  22.6170  22.6525  22.6833  22.7974  22.8684  22.8804  22.9153
    22.9354  22.9466  22.9907  23.0054  23.1680  23.2007  23.2188  23.2501
    23.2671  23.2927  23.3146  23.3320  23.3529  23.4154  23.4586  23.4733
    23.5082  23.5259  23.5387  23.5715  23.6086  23.6969  23.7312  23.7772
    23.8715  23.8832  23.9062  23.9374  23.9674  23.9823  24.1237  24.1570
    24.1843  24.1930  24.2150  24.2258  24.2515  24.3038  24.4048  24.4282
    24.4506  24.4671  24.4963  24.5083  24.5360  24.5834  24.5990  24.6373
    24.6954  24.7393  24.7636  24.8043  24.8733  24.9349  24.9702  24.9928
    25.0306  25.0402  25.0483  25.1001  25.1475  25.2084  25.2779  25.3098
    25.3279  25.3735  25.3883  25.4080  25.4345  25.4719  25.4852  25.5435
    25.6346  25.6741  25.6961  25.7324  25.7741  25.8281  25.8762  25.9239
    25.9380  25.9686  25.9922  26.0224  26.0525  26.1115  26.1950  26.2467
    26.2908  26.3659  26.3716  26.3982  26.4331  26.4619  26.5012  26.5642
    26.6112  26.6821  26.7072  26.7226  26.7564  26.7794  26.8063  26.8738
    26.8832  26.9265  26.9328  26.9715  26.9868  27.0270  27.1046  27.1421
    27.1606  27.2215  27.3197  27.3894  27.4236  27.4565  27.4960  27.5073

     occupation numbers 
     1.0000   1.0000   1.0000   1.0000   1.0000   1.0000   1.0000   1.0000
     1.0000   1.0000   1.0000   1.0000   1.0000   1.0000   1.0000   1.0000
     1.0000   1.0000   1.0000   1.0000   1.0000   1.0000   1.0000   1.0000
     1.0000   1.0000   1.0000   1.0000   1.0000   1.0000   1.0000   1.0000
     1.0000   1.0000   1.0000   1.0000   1.0000   1.0000   1.0000   1.0000
     1.0000   1.0000   1.0000   1.0000   1.0000   1.0000   1.0000   1.0000
     1.0000   1.0000   1.0000   1.0000   1.0000   1.0000   1.0000   1.0000
     1.0000   1.0000   1.0000   1.0000   1.0000   1.0000   1.0000   1.0000
     1.0000   1.0000   1.0000   1.0000   0.0000   0.0000   0.0000   0.0000
     0.0000   0.0000   0.0000   0.0000   0.0000   0.0000   0.0000   0.0000
     0.0000   0.0000   0.0000   0.0000   0.0000   0.0000   0.0000   0.0000
     0.0000   0.0000   0.0000   0.0000   0.0000   0.0000   0.0000   0.0000
     0.0000   0.0000   0.0000   0.0000   0.0000   0.0000   0.0000   0.0000
     0.0000   0.0000   0.0000   0.0000   0.0000   0.0000   0.0000   0.0000
     0.0000   0.0000   0.0000   0.0000   0.0000   0.0000   0.0000   0.0000
     0.0000   0.0000   0.0000   0.0000   0.0000   0.0000   0.0000   0.0000
     0.0000   0.0000   0.0000   0.0000   0.0000   0.0000   0.0000   0.0000
     0.0000   0.0000   0.0000   0.0000   0.0000   0.0000   0.0000   0.0000
     0.0000   0.0000   0.0000   0.0000   0.0000   0.0000   0.0000   0.0000
     0.0000   0.0000   0.0000   0.0000   0.0000   0.0000   0.0000   0.0000
     0.0000   0.0000   0.0000   0.0000   0.0000   0.0000   0.0000   0.0000
     0.0000   0.0000   0.0000   0.0000   0.0000   0.0000   0.0000   0.0000
     0.0000   0.0000   0.0000   0.0000   0.0000   0.0000   0.0000   0.0000
     0.0000   0.0000   0.0000   0.0000   0.0000   0.0000   0.0000   0.0000
     0.0000   0.0000   0.0000   0.0000   0.0000   0.0000   0.0000   0.0000
     0.0000   0.0000   0.0000   0.0000   0.0000   0.0000   0.0000   0.0000
     0.0000   0.0000   0.0000   0.0000   0.0000   0.0000   0.0000   0.0000
     0.0000   0.0000   0.0000   0.0000   0.0000   0.0000   0.0000   0.0000
     0.0000   0.0000   0.0000   0.0000   0.0000   0.0000   0.0000   0.0000
     0.0000   0.0000   0.0000   0.0000   0.0000   0.0000   0.0000   0.0000
     0.0000   0.0000   0.0000   0.0000   0.0000   0.0000   0.0000   0.0000
     0.0000   0.0000   0.0000   0.0000   0.0000   0.0000   0.0000   0.0000
     0.0000   0.0000   0.0000   0.0000   0.0000   0.0000   0.0000   0.0000
     0.0000   0.0000   0.0000   0.0000   0.0000   0.0000   0.0000   0.0000
     0.0000   0.0000   0.0000   0.0000   0.0000   0.0000   0.0000   0.0000
     0.0000   0.0000   0.0000   0.0000   0.0000   0.0000   0.0000   0.0000
     0.0000   0.0000   0.0000   0.0000   0.0000   0.0000   0.0000   0.0000
     0.0000   0.0000   0.0000   0.0000   0.0000   0.0000   0.0000   0.0000
     0.0000   0.0000   0.0000   0.0000   0.0000   0.0000   0.0000   0.0000
     0.0000   0.0000   0.0000   0.0000   0.0000   0.0000   0.0000   0.0000
     0.0000   0.0000   0.0000   0.0000   0.0000   0.0000   0.0000   0.0000
     0.0000   0.0000   0.0000   0.0000   0.0000   0.0000   0.0000   0.0000
     0.0000   0.0000   0.0000   0.0000   0.0000   0.0000   0.0000   0.0000
     0.0000   0.0000   0.0000   0.0000   0.0000   0.0000   0.0000   0.0000
     0.0000   0.0000   0.0000   0.0000   0.0000   0.0000   0.0000   0.0000
     0.0000   0.0000   0.0000   0.0000   0.0000   0.0000   0.0000   0.0000
     0.0000   0.0000   0.0000   0.0000   0.0000   0.0000   0.0000   0.0000
     0.0000   0.0000   0.0000   0.0000   0.0000   0.0000   0.0000   0.0000
     0.0000   0.0000   0.0000   0.0000   0.0000   0.0000   0.0000   0.0000
     0.0000   0.0000   0.0000   0.0000   0.0000   0.0000   0.0000   0.0000
     0.0000   0.0000   0.0000   0.0000   0.0000   0.0000   0.0000   0.0000
     0.0000   0.0000   0.0000   0.0000   0.0000   0.0000   0.0000   0.0000
     0.0000   0.0000   0.0000   0.0000   0.0000   0.0000   0.0000   0.0000
     0.0000   0.0000   0.0000   0.0000   0.0000   0.0000   0.0000   0.0000
     0.0000   0.0000   0.0000   0.0000   0.0000   0.0000   0.0000   0.0000
     0.0000   0.0000   0.0000   0.0000   0.0000   0.0000   0.0000   0.0000
     0.0000   0.0000   0.0000   0.0000   0.0000   0.0000   0.0000   0.0000
     0.0000   0.0000   0.0000   0.0000   0.0000   0.0000   0.0000   0.0000
     0.0000   0.0000   0.0000   0.0000   0.0000   0.0000   0.0000   0.0000
     0.0000   0.0000   0.0000   0.0000   0.0000   0.0000   0.0000   0.0000
     0.0000   0.0000   0.0000   0.0000   0.0000   0.0000   0.0000   0.0000
     0.0000   0.0000   0.0000   0.0000   0.0000   0.0000   0.0000   0.0000
     0.0000   0.0000   0.0000   0.0000   0.0000   0.0000   0.0000   0.0000
     0.0000   0.0000   0.0000   0.0000   0.0000   0.0000   0.0000   0.0000
     0.0000   0.0000   0.0000   0.0000   0.0000   0.0000   0.0000   0.0000
     0.0000   0.0000   0.0000   0.0000   0.0000   0.0000   0.0000   0.0000
     0.0000   0.0000   0.0000   0.0000   0.0000   0.0000   0.0000   0.0000
     0.0000   0.0000   0.0000   0.0000   0.0000   0.0000   0.0000   0.0000
     0.0000   0.0000   0.0000   0.0000   0.0000   0.0000   0.0000   0.0000
     0.0000   0.0000   0.0000   0.0000   0.0000   0.0000   0.0000   0.0000
     0.0000   0.0000   0.0000   0.0000   0.0000   0.0000   0.0000   0.0000
     0.0000   0.0000   0.0000   0.0000   0.0000   0.0000   0.0000   0.0000
     0.0000   0.0000   0.0000   0.0000   0.0000   0.0000   0.0000   0.0000
     0.0000   0.0000   0.0000   0.0000   0.0000   0.0000   0.0000   0.0000
     0.0000   0.0000   0.0000   0.0000   0.0000   0.0000   0.0000   0.0000

          k =-0.1667-0.0962 0.0000 ( 59490 PWs)   bands (ev):

   -73.4619 -73.4615 -71.3728 -71.3723 -47.5888 -47.5853 -47.2965 -47.2955
   -46.9699 -46.9660 -45.3666 -45.3625 -45.0707 -45.0694 -44.8944 -44.8898
   -18.4221 -18.3980 -17.8729 -17.8423 -17.6257 -17.6113 -17.5717 -17.5260
   -17.4997 -17.4586 -17.3480 -17.3435 -11.6174 -11.5927 -11.2835 -11.2540
   -10.1933 -10.0492  -9.8523  -9.7164  -9.3250  -9.2987  -9.2474  -9.2154
    -9.0342  -8.9042  -8.7179  -8.6426  -8.2472  -8.1780  -7.9754  -7.8722
    -7.8366  -7.7426  -7.6323  -7.5622  -7.4703  -7.4178  -7.1875  -7.1465
    -6.9096  -6.7648  -6.6858  -6.4735  -6.3609  -6.3493  -6.2286  -6.1835
    -6.0965  -5.7783  -5.6498  -5.5794  -5.1453  -5.1283  -5.0885  -5.0638
    -5.0126  -4.9385  -4.0937  -4.0513  -3.9793  -3.9110  -3.8584  -3.8094
    -2.4932  -2.4365  -2.3302  -2.2760  -1.3159  -1.1056  -0.9275  -0.9063
    -0.0458   0.0229   0.0876   0.1525   0.1710   0.1931   0.2080   0.3319
     0.4675   0.5577   0.6110   0.7219   0.9677   1.1125   1.1365   1.2382
     1.7782   1.8353   1.8914   2.0173   2.1977   2.2398   2.2851   2.3380
     2.4007   2.4205   2.4862   2.5705   2.5895   2.6515   2.6940   2.7681
     2.7867   2.8467   2.9412   3.0239   3.0428   3.1408   3.2726   3.3244
     3.3408   3.4062   3.7237   3.7514   3.7973   3.8333   3.8857   3.8954
     4.1477   4.2090   4.2495   4.3210   4.3492   4.3845   4.6983   4.7590
     4.7774   4.8380   4.8640   4.9125   5.1300   5.2622   5.2747   5.3550
     5.4162   5.4947   5.5202   5.5848   5.6196   5.6424   5.7094   5.7308
     5.9517   6.0550   6.3710   6.4310   6.4655   6.5400   6.5661   6.6452
     6.6543   6.7656   6.8287   6.8488   6.8930   6.9368   7.1246   7.1699
     7.3598   7.3898   7.4340   7.4799   7.7263   7.8049   7.8310   7.8352
     7.9194   7.9339   8.1602   8.2627   8.3185   8.3839   8.4120   8.5059
     8.6292   8.7253   8.8575   8.9173   8.9441   8.9820   9.0208   9.0374
     9.0568   9.0627   9.2318   9.2735   9.3472   9.3914   9.4808   9.5212
     9.8350   9.8926   9.9104   9.9621   9.9792  10.0399  10.2032  10.2645
    10.3932  10.4198  10.4838  10.5041  10.6170  10.6366  10.6812  10.6927
    10.8840  10.9563  10.9846  11.0245  11.2719  11.3379  11.4101  11.4364
    11.4833  11.5025  11.6558  11.7494  11.7780  11.8004  11.8273  11.8951
    11.9704  12.0352  12.1088  12.1384  12.1639  12.2228  12.2545  12.2673
    12.3109  12.3385  12.5196  12.5869  12.5922  12.6200  12.6487  12.7166
    12.8768  12.9178  12.9229  12.9767  12.9827  13.0039  13.0157  13.0371
    13.0730  13.1149  13.1473  13.1911  13.2751  13.2926  13.3320  13.3706
    13.4620  13.5183  13.5388  13.5627  13.7436  13.7841  13.8445  13.9037
    13.9841  14.0537  14.0721  14.1024  14.1223  14.1662  14.2623  14.2975
    14.3549  14.3677  14.3736  14.4517  14.4743  14.5176  14.5234  14.5617
    14.6716  14.7352  14.8573  14.8938  14.9129  14.9371  14.9555  14.9728
    15.0575  15.0991  15.2214  15.2409  15.2735  15.2999  15.3435  15.3634
    15.4189  15.4212  15.5843  15.6362  15.6439  15.6851  15.7005  15.7627
    15.8175  15.8878  15.8933  15.9111  15.9203  15.9335  15.9820  15.9897
    16.1677  16.2304  16.2940  16.3592  16.3826  16.4446  16.4707  16.4984
    16.5356  16.5475  16.6717  16.7231  16.7734  16.8113  16.8472  16.8797
    16.9434  16.9722  17.0032  17.0464  17.0665  17.0820  17.1044  17.1369
    17.2447  17.2981  17.3251  17.3729  17.4824  17.5400  17.6887  17.7517
    17.7599  17.8040  17.8484  17.8767  17.9235  17.9879  18.1172  18.1623
    18.1871  18.2074  18.3846  18.4749  18.4862  18.5097  18.5530  18.5634
    18.5749  18.6356  18.6556  18.6981  18.7352  18.7828  18.9607  18.9778
    19.0275  19.0588  19.0662  19.0912  19.1292  19.1503  19.2193  19.2559
    19.2718  19.2827  19.3182  19.3243  19.3455  19.3933  19.4707  19.5297
    19.6047  19.6224  19.6406  19.6666  19.6873  19.6980  19.7689  19.8373
    19.8773  19.9368  19.9705  20.0143  20.0267  20.0994  20.1180  20.1187
    20.1207  20.1548  20.2045  20.2144  20.3029  20.3525  20.4410  20.4837
    20.5031  20.5306  20.6014  20.6619  20.6758  20.7156  20.7427  20.8111
    20.8137  20.8696  20.8846  20.9635  20.9913  21.0115  21.0399  21.0620
    21.1013  21.1156  21.1601  21.1682  21.2128  21.2443  21.2765  21.3430
    21.3640  21.4125  21.4380  21.4760  21.5003  21.5807  21.6156  21.6645
    21.6814  21.6880  21.6952  21.7255  21.8966  21.9411  21.9998  22.0770
    22.0945  22.1287  22.1547  22.2421  22.2612  22.2706  22.3143  22.3397
    22.3807  22.3879  22.4191  22.4533  22.5687  22.6474  22.6609  22.6835
    22.7311  22.7397  22.8369  22.8757  22.8944  22.9883  23.0312  23.1033
    23.1159  23.1749  23.2059  23.2988  23.3646  23.4168  23.4617  23.5219
    23.5355  23.5413  23.5800  23.5823  23.5887  23.6220  23.6560  23.6902
    23.7155  23.7632  23.7945  23.8476  23.8647  23.9208  23.9672  24.0291
    24.0899  24.1170  24.1485  24.1799  24.1988  24.2357  24.2425  24.2901
    24.3287  24.4033  24.4241  24.4492  24.4785  24.4923  24.5161  24.5396
    24.6180  24.6431  24.6878  24.7258  24.7731  24.8100  24.8481  24.8927
    24.9001  24.9532  24.9903  25.0424  25.0685  25.1252  25.1446  25.2057
    25.2317  25.2836  25.3027  25.3548  25.4146  25.4817  25.5030  25.5525
    25.5672  25.5889  25.6265  25.6416  25.6712  25.6876  25.7078  25.7648
    25.8311  25.8847  25.9419  25.9949  26.0042  26.0714  26.1032  26.1126
    26.1579  26.1626  26.2723  26.3161  26.3509  26.3582  26.3838  26.4466
    26.5869  26.6416  26.6489  26.7094  26.7316  26.7328  26.7798  26.8057
    26.8574  26.8843  26.9048  26.9262  26.9346  27.0053  27.0759  27.1269
    27.1426  27.1775  27.2005  27.2489  27.2566  27.3116  27.3343  27.3779

     occupation numbers 
     1.0000   1.0000   1.0000   1.0000   1.0000   1.0000   1.0000   1.0000
     1.0000   1.0000   1.0000   1.0000   1.0000   1.0000   1.0000   1.0000
     1.0000   1.0000   1.0000   1.0000   1.0000   1.0000   1.0000   1.0000
     1.0000   1.0000   1.0000   1.0000   1.0000   1.0000   1.0000   1.0000
     1.0000   1.0000   1.0000   1.0000   1.0000   1.0000   1.0000   1.0000
     1.0000   1.0000   1.0000   1.0000   1.0000   1.0000   1.0000   1.0000
     1.0000   1.0000   1.0000   1.0000   1.0000   1.0000   1.0000   1.0000
     1.0000   1.0000   1.0000   1.0000   1.0000   1.0000   1.0000   1.0000
     1.0000   1.0000   1.0000   1.0000   0.0000   0.0000   0.0000   0.0000
     0.0000   0.0000   0.0000   0.0000   0.0000   0.0000   0.0000   0.0000
     0.0000   0.0000   0.0000   0.0000   0.0000   0.0000   0.0000   0.0000
     0.0000   0.0000   0.0000   0.0000   0.0000   0.0000   0.0000   0.0000
     0.0000   0.0000   0.0000   0.0000   0.0000   0.0000   0.0000   0.0000
     0.0000   0.0000   0.0000   0.0000   0.0000   0.0000   0.0000   0.0000
     0.0000   0.0000   0.0000   0.0000   0.0000   0.0000   0.0000   0.0000
     0.0000   0.0000   0.0000   0.0000   0.0000   0.0000   0.0000   0.0000
     0.0000   0.0000   0.0000   0.0000   0.0000   0.0000   0.0000   0.0000
     0.0000   0.0000   0.0000   0.0000   0.0000   0.0000   0.0000   0.0000
     0.0000   0.0000   0.0000   0.0000   0.0000   0.0000   0.0000   0.0000
     0.0000   0.0000   0.0000   0.0000   0.0000   0.0000   0.0000   0.0000
     0.0000   0.0000   0.0000   0.0000   0.0000   0.0000   0.0000   0.0000
     0.0000   0.0000   0.0000   0.0000   0.0000   0.0000   0.0000   0.0000
     0.0000   0.0000   0.0000   0.0000   0.0000   0.0000   0.0000   0.0000
     0.0000   0.0000   0.0000   0.0000   0.0000   0.0000   0.0000   0.0000
     0.0000   0.0000   0.0000   0.0000   0.0000   0.0000   0.0000   0.0000
     0.0000   0.0000   0.0000   0.0000   0.0000   0.0000   0.0000   0.0000
     0.0000   0.0000   0.0000   0.0000   0.0000   0.0000   0.0000   0.0000
     0.0000   0.0000   0.0000   0.0000   0.0000   0.0000   0.0000   0.0000
     0.0000   0.0000   0.0000   0.0000   0.0000   0.0000   0.0000   0.0000
     0.0000   0.0000   0.0000   0.0000   0.0000   0.0000   0.0000   0.0000
     0.0000   0.0000   0.0000   0.0000   0.0000   0.0000   0.0000   0.0000
     0.0000   0.0000   0.0000   0.0000   0.0000   0.0000   0.0000   0.0000
     0.0000   0.0000   0.0000   0.0000   0.0000   0.0000   0.0000   0.0000
     0.0000   0.0000   0.0000   0.0000   0.0000   0.0000   0.0000   0.0000
     0.0000   0.0000   0.0000   0.0000   0.0000   0.0000   0.0000   0.0000
     0.0000   0.0000   0.0000   0.0000   0.0000   0.0000   0.0000   0.0000
     0.0000   0.0000   0.0000   0.0000   0.0000   0.0000   0.0000   0.0000
     0.0000   0.0000   0.0000   0.0000   0.0000   0.0000   0.0000   0.0000
     0.0000   0.0000   0.0000   0.0000   0.0000   0.0000   0.0000   0.0000
     0.0000   0.0000   0.0000   0.0000   0.0000   0.0000   0.0000   0.0000
     0.0000   0.0000   0.0000   0.0000   0.0000   0.0000   0.0000   0.0000
     0.0000   0.0000   0.0000   0.0000   0.0000   0.0000   0.0000   0.0000
     0.0000   0.0000   0.0000   0.0000   0.0000   0.0000   0.0000   0.0000
     0.0000   0.0000   0.0000   0.0000   0.0000   0.0000   0.0000   0.0000
     0.0000   0.0000   0.0000   0.0000   0.0000   0.0000   0.0000   0.0000
     0.0000   0.0000   0.0000   0.0000   0.0000   0.0000   0.0000   0.0000
     0.0000   0.0000   0.0000   0.0000   0.0000   0.0000   0.0000   0.0000
     0.0000   0.0000   0.0000   0.0000   0.0000   0.0000   0.0000   0.0000
     0.0000   0.0000   0.0000   0.0000   0.0000   0.0000   0.0000   0.0000
     0.0000   0.0000   0.0000   0.0000   0.0000   0.0000   0.0000   0.0000
     0.0000   0.0000   0.0000   0.0000   0.0000   0.0000   0.0000   0.0000
     0.0000   0.0000   0.0000   0.0000   0.0000   0.0000   0.0000   0.0000
     0.0000   0.0000   0.0000   0.0000   0.0000   0.0000   0.0000   0.0000
     0.0000   0.0000   0.0000   0.0000   0.0000   0.0000   0.0000   0.0000
     0.0000   0.0000   0.0000   0.0000   0.0000   0.0000   0.0000   0.0000
     0.0000   0.0000   0.0000   0.0000   0.0000   0.0000   0.0000   0.0000
     0.0000   0.0000   0.0000   0.0000   0.0000   0.0000   0.0000   0.0000
     0.0000   0.0000   0.0000   0.0000   0.0000   0.0000   0.0000   0.0000
     0.0000   0.0000   0.0000   0.0000   0.0000   0.0000   0.0000   0.0000
     0.0000   0.0000   0.0000   0.0000   0.0000   0.0000   0.0000   0.0000
     0.0000   0.0000   0.0000   0.0000   0.0000   0.0000   0.0000   0.0000
     0.0000   0.0000   0.0000   0.0000   0.0000   0.0000   0.0000   0.0000
     0.0000   0.0000   0.0000   0.0000   0.0000   0.0000   0.0000   0.0000
     0.0000   0.0000   0.0000   0.0000   0.0000   0.0000   0.0000   0.0000
     0.0000   0.0000   0.0000   0.0000   0.0000   0.0000   0.0000   0.0000
     0.0000   0.0000   0.0000   0.0000   0.0000   0.0000   0.0000   0.0000
     0.0000   0.0000   0.0000   0.0000   0.0000   0.0000   0.0000   0.0000
     0.0000   0.0000   0.0000   0.0000   0.0000   0.0000   0.0000   0.0000
     0.0000   0.0000   0.0000   0.0000   0.0000   0.0000   0.0000   0.0000
     0.0000   0.0000   0.0000   0.0000   0.0000   0.0000   0.0000   0.0000
     0.0000   0.0000   0.0000   0.0000   0.0000   0.0000   0.0000   0.0000
     0.0000   0.0000   0.0000   0.0000   0.0000   0.0000   0.0000   0.0000
     0.0000   0.0000   0.0000   0.0000   0.0000   0.0000   0.0000   0.0000
     0.0000   0.0000   0.0000   0.0000   0.0000   0.0000   0.0000   0.0000
     0.0000   0.0000   0.0000   0.0000   0.0000   0.0000   0.0000   0.0000

          k =-0.1667 0.0962 0.0000 ( 59490 PWs)   bands (ev):

   -73.4619 -73.4615 -71.3728 -71.3723 -47.5888 -47.5853 -47.2965 -47.2955
   -46.9699 -46.9660 -45.3666 -45.3625 -45.0707 -45.0694 -44.8944 -44.8898
   -18.4221 -18.3980 -17.8729 -17.8423 -17.6256 -17.6114 -17.5719 -17.5259
   -17.4998 -17.4585 -17.3481 -17.3434 -11.6174 -11.5928 -11.2835 -11.2540
   -10.1933 -10.0492  -9.8523  -9.7164  -9.3249  -9.2989  -9.2474  -9.2152
    -9.0341  -8.9042  -8.7181  -8.6427  -8.2472  -8.1779  -7.9753  -7.8727
    -7.8363  -7.7427  -7.6327  -7.5619  -7.4706  -7.4173  -7.1875  -7.1466
    -6.9095  -6.7649  -6.6856  -6.4744  -6.3609  -6.3489  -6.2282  -6.1836
    -6.0964  -5.7783  -5.6507  -5.5786  -5.1453  -5.1283  -5.0886  -5.0638
    -5.0126  -4.9385  -4.0937  -4.0514  -3.9792  -3.9111  -3.8584  -3.8094
    -2.4933  -2.4364  -2.3302  -2.2759  -1.3159  -1.1056  -0.9275  -0.9063
    -0.0457   0.0230   0.0876   0.1525   0.1711   0.1927   0.2082   0.3319
     0.4674   0.5575   0.6110   0.7218   0.9677   1.1125   1.1366   1.2382
     1.7779   1.8354   1.8913   2.0171   2.1979   2.2398   2.2853   2.3381
     2.4010   2.4201   2.4864   2.5702   2.5895   2.6517   2.6938   2.7683
     2.7867   2.8468   2.9410   3.0240   3.0427   3.1407   3.2728   3.3241
     3.3407   3.4063   3.7236   3.7515   3.7973   3.8335   3.8857   3.8954
     4.1477   4.2090   4.2497   4.3209   4.3490   4.3846   4.6984   4.7590
     4.7775   4.8380   4.8640   4.9124   5.1300   5.2624   5.2748   5.3550
     5.4163   5.4947   5.5204   5.5845   5.6185   5.6432   5.7101   5.7302
     5.9518   6.0550   6.3710   6.4310   6.4655   6.5400   6.5663   6.6449
     6.6542   6.7656   6.8287   6.8488   6.8929   6.9369   7.1245   7.1700
     7.3599   7.3898   7.4340   7.4799   7.7262   7.8048   7.8310   7.8353
     7.9196   7.9338   8.1602   8.2627   8.3185   8.3839   8.4120   8.5059
     8.6292   8.7253   8.8575   8.9172   8.9441   8.9821   9.0209   9.0375
     9.0568   9.0627   9.2318   9.2735   9.3472   9.3914   9.4808   9.5212
     9.8350   9.8925   9.9105   9.9622   9.9792  10.0398  10.2032  10.2645
    10.3932  10.4198  10.4837  10.5042  10.6170  10.6366  10.6812  10.6927
    10.8841  10.9563  10.9846  11.0245  11.2719  11.3380  11.4101  11.4364
    11.4833  11.5025  11.6557  11.7494  11.7780  11.8003  11.8273  11.8951
    11.9705  12.0350  12.1088  12.1384  12.1639  12.2228  12.2543  12.2674
    12.3112  12.3382  12.5196  12.5869  12.5923  12.6199  12.6488  12.7166
    12.8771  12.9176  12.9231  12.9766  12.9827  13.0036  13.0160  13.0372
    13.0729  13.1149  13.1473  13.1911  13.2751  13.2926  13.3321  13.3706
    13.4621  13.5183  13.5388  13.5627  13.7436  13.7841  13.8445  13.9038
    13.9842  14.0536  14.0720  14.1024  14.1222  14.1662  14.2623  14.2975
    14.3549  14.3677  14.3736  14.4517  14.4743  14.5177  14.5233  14.5617
    14.6717  14.7353  14.8573  14.8938  14.9130  14.9371  14.9555  14.9728
    15.0574  15.0991  15.2215  15.2409  15.2735  15.2999  15.3435  15.3634
    15.4188  15.4214  15.5844  15.6361  15.6439  15.6852  15.7005  15.7627
    15.8175  15.8878  15.8933  15.9109  15.9203  15.9335  15.9821  15.9897
    16.1677  16.2304  16.2941  16.3591  16.3827  16.4447  16.4707  16.4984
    16.5353  16.5477  16.6718  16.7231  16.7734  16.8113  16.8472  16.8797
    16.9438  16.9717  17.0033  17.0462  17.0668  17.0823  17.1045  17.1368
    17.2447  17.2982  17.3252  17.3730  17.4824  17.5400  17.6886  17.7519
    17.7601  17.8039  17.8481  17.8767  17.9236  17.9878  18.1171  18.1624
    18.1871  18.2074  18.3846  18.4750  18.4864  18.5094  18.5528  18.5633
    18.5750  18.6355  18.6558  18.6982  18.7352  18.7829  18.9606  18.9780
    19.0274  19.0587  19.0662  19.0910  19.1291  19.1506  19.2194  19.2559
    19.2719  19.2827  19.3183  19.3243  19.3455  19.3933  19.4707  19.5296
    19.6047  19.6224  19.6406  19.6666  19.6873  19.6979  19.7689  19.8374
    19.8773  19.9368  19.9705  20.0142  20.0267  20.0995  20.1180  20.1185
    20.1206  20.1549  20.2045  20.2145  20.3030  20.3525  20.4411  20.4837
    20.5030  20.5306  20.6014  20.6619  20.6758  20.7156  20.7426  20.8111
    20.8137  20.8696  20.8845  20.9635  20.9914  21.0116  21.0400  21.0621
    21.1013  21.1156  21.1600  21.1683  21.2128  21.2443  21.2764  21.3430
    21.3641  21.4125  21.4380  21.4760  21.5003  21.5808  21.6156  21.6645
    21.6814  21.6879  21.6952  21.7255  21.8967  21.9411  21.9998  22.0771
    22.0946  22.1287  22.1546  22.2419  22.2614  22.2703  22.3142  22.3398
    22.3806  22.3879  22.4191  22.4533  22.5686  22.6474  22.6609  22.6836
    22.7310  22.7397  22.8368  22.8756  22.8943  22.9883  23.0313  23.1032
    23.1156  23.1749  23.2059  23.2988  23.3647  23.4168  23.4615  23.5221
    23.5356  23.5411  23.5799  23.5823  23.5887  23.6220  23.6560  23.6903
    23.7157  23.7630  23.7944  23.8477  23.8646  23.9210  23.9671  24.0292
    24.0900  24.1170  24.1484  24.1801  24.1989  24.2358  24.2425  24.2901
    24.3288  24.4031  24.4239  24.4491  24.4788  24.4922  24.5162  24.5394
    24.6180  24.6431  24.6877  24.7257  24.7729  24.8102  24.8482  24.8928
    24.9001  24.9532  24.9903  25.0423  25.0685  25.1253  25.1446  25.2057
    25.2317  25.2836  25.3027  25.3548  25.4145  25.4817  25.5030  25.5525
    25.5674  25.5889  25.6267  25.6413  25.6713  25.6876  25.7077  25.7648
    25.8311  25.8848  25.9418  25.9950  26.0043  26.0714  26.1033  26.1125
    26.1578  26.1627  26.2723  26.3161  26.3509  26.3582  26.3838  26.4466
    26.5869  26.6416  26.6489  26.7094  26.7316  26.7328  26.7797  26.8057
    26.8574  26.8843  26.9048  26.9262  26.9346  27.0052  27.0758  27.1269
    27.1426  27.1775  27.2005  27.2490  27.2566  27.3116  27.3344  27.3779

     occupation numbers 
     1.0000   1.0000   1.0000   1.0000   1.0000   1.0000   1.0000   1.0000
     1.0000   1.0000   1.0000   1.0000   1.0000   1.0000   1.0000   1.0000
     1.0000   1.0000   1.0000   1.0000   1.0000   1.0000   1.0000   1.0000
     1.0000   1.0000   1.0000   1.0000   1.0000   1.0000   1.0000   1.0000
     1.0000   1.0000   1.0000   1.0000   1.0000   1.0000   1.0000   1.0000
     1.0000   1.0000   1.0000   1.0000   1.0000   1.0000   1.0000   1.0000
     1.0000   1.0000   1.0000   1.0000   1.0000   1.0000   1.0000   1.0000
     1.0000   1.0000   1.0000   1.0000   1.0000   1.0000   1.0000   1.0000
     1.0000   1.0000   1.0000   1.0000   0.0000   0.0000   0.0000   0.0000
     0.0000   0.0000   0.0000   0.0000   0.0000   0.0000   0.0000   0.0000
     0.0000   0.0000   0.0000   0.0000   0.0000   0.0000   0.0000   0.0000
     0.0000   0.0000   0.0000   0.0000   0.0000   0.0000   0.0000   0.0000
     0.0000   0.0000   0.0000   0.0000   0.0000   0.0000   0.0000   0.0000
     0.0000   0.0000   0.0000   0.0000   0.0000   0.0000   0.0000   0.0000
     0.0000   0.0000   0.0000   0.0000   0.0000   0.0000   0.0000   0.0000
     0.0000   0.0000   0.0000   0.0000   0.0000   0.0000   0.0000   0.0000
     0.0000   0.0000   0.0000   0.0000   0.0000   0.0000   0.0000   0.0000
     0.0000   0.0000   0.0000   0.0000   0.0000   0.0000   0.0000   0.0000
     0.0000   0.0000   0.0000   0.0000   0.0000   0.0000   0.0000   0.0000
     0.0000   0.0000   0.0000   0.0000   0.0000   0.0000   0.0000   0.0000
     0.0000   0.0000   0.0000   0.0000   0.0000   0.0000   0.0000   0.0000
     0.0000   0.0000   0.0000   0.0000   0.0000   0.0000   0.0000   0.0000
     0.0000   0.0000   0.0000   0.0000   0.0000   0.0000   0.0000   0.0000
     0.0000   0.0000   0.0000   0.0000   0.0000   0.0000   0.0000   0.0000
     0.0000   0.0000   0.0000   0.0000   0.0000   0.0000   0.0000   0.0000
     0.0000   0.0000   0.0000   0.0000   0.0000   0.0000   0.0000   0.0000
     0.0000   0.0000   0.0000   0.0000   0.0000   0.0000   0.0000   0.0000
     0.0000   0.0000   0.0000   0.0000   0.0000   0.0000   0.0000   0.0000
     0.0000   0.0000   0.0000   0.0000   0.0000   0.0000   0.0000   0.0000
     0.0000   0.0000   0.0000   0.0000   0.0000   0.0000   0.0000   0.0000
     0.0000   0.0000   0.0000   0.0000   0.0000   0.0000   0.0000   0.0000
     0.0000   0.0000   0.0000   0.0000   0.0000   0.0000   0.0000   0.0000
     0.0000   0.0000   0.0000   0.0000   0.0000   0.0000   0.0000   0.0000
     0.0000   0.0000   0.0000   0.0000   0.0000   0.0000   0.0000   0.0000
     0.0000   0.0000   0.0000   0.0000   0.0000   0.0000   0.0000   0.0000
     0.0000   0.0000   0.0000   0.0000   0.0000   0.0000   0.0000   0.0000
     0.0000   0.0000   0.0000   0.0000   0.0000   0.0000   0.0000   0.0000
     0.0000   0.0000   0.0000   0.0000   0.0000   0.0000   0.0000   0.0000
     0.0000   0.0000   0.0000   0.0000   0.0000   0.0000   0.0000   0.0000
     0.0000   0.0000   0.0000   0.0000   0.0000   0.0000   0.0000   0.0000
     0.0000   0.0000   0.0000   0.0000   0.0000   0.0000   0.0000   0.0000
     0.0000   0.0000   0.0000   0.0000   0.0000   0.0000   0.0000   0.0000
     0.0000   0.0000   0.0000   0.0000   0.0000   0.0000   0.0000   0.0000
     0.0000   0.0000   0.0000   0.0000   0.0000   0.0000   0.0000   0.0000
     0.0000   0.0000   0.0000   0.0000   0.0000   0.0000   0.0000   0.0000
     0.0000   0.0000   0.0000   0.0000   0.0000   0.0000   0.0000   0.0000
     0.0000   0.0000   0.0000   0.0000   0.0000   0.0000   0.0000   0.0000
     0.0000   0.0000   0.0000   0.0000   0.0000   0.0000   0.0000   0.0000
     0.0000   0.0000   0.0000   0.0000   0.0000   0.0000   0.0000   0.0000
     0.0000   0.0000   0.0000   0.0000   0.0000   0.0000   0.0000   0.0000
     0.0000   0.0000   0.0000   0.0000   0.0000   0.0000   0.0000   0.0000
     0.0000   0.0000   0.0000   0.0000   0.0000   0.0000   0.0000   0.0000
     0.0000   0.0000   0.0000   0.0000   0.0000   0.0000   0.0000   0.0000
     0.0000   0.0000   0.0000   0.0000   0.0000   0.0000   0.0000   0.0000
     0.0000   0.0000   0.0000   0.0000   0.0000   0.0000   0.0000   0.0000
     0.0000   0.0000   0.0000   0.0000   0.0000   0.0000   0.0000   0.0000
     0.0000   0.0000   0.0000   0.0000   0.0000   0.0000   0.0000   0.0000
     0.0000   0.0000   0.0000   0.0000   0.0000   0.0000   0.0000   0.0000
     0.0000   0.0000   0.0000   0.0000   0.0000   0.0000   0.0000   0.0000
     0.0000   0.0000   0.0000   0.0000   0.0000   0.0000   0.0000   0.0000
     0.0000   0.0000   0.0000   0.0000   0.0000   0.0000   0.0000   0.0000
     0.0000   0.0000   0.0000   0.0000   0.0000   0.0000   0.0000   0.0000
     0.0000   0.0000   0.0000   0.0000   0.0000   0.0000   0.0000   0.0000
     0.0000   0.0000   0.0000   0.0000   0.0000   0.0000   0.0000   0.0000
     0.0000   0.0000   0.0000   0.0000   0.0000   0.0000   0.0000   0.0000
     0.0000   0.0000   0.0000   0.0000   0.0000   0.0000   0.0000   0.0000
     0.0000   0.0000   0.0000   0.0000   0.0000   0.0000   0.0000   0.0000
     0.0000   0.0000   0.0000   0.0000   0.0000   0.0000   0.0000   0.0000
     0.0000   0.0000   0.0000   0.0000   0.0000   0.0000   0.0000   0.0000
     0.0000   0.0000   0.0000   0.0000   0.0000   0.0000   0.0000   0.0000
     0.0000   0.0000   0.0000   0.0000   0.0000   0.0000   0.0000   0.0000
     0.0000   0.0000   0.0000   0.0000   0.0000   0.0000   0.0000   0.0000
     0.0000   0.0000   0.0000   0.0000   0.0000   0.0000   0.0000   0.0000
     0.0000   0.0000   0.0000   0.0000   0.0000   0.0000   0.0000   0.0000
     0.0000   0.0000   0.0000   0.0000   0.0000   0.0000   0.0000   0.0000

          k =-0.1667 0.2887 0.0000 ( 59517 PWs)   bands (ev):

   -73.4619 -73.4615 -71.3727 -71.3723 -47.5884 -47.5858 -47.2964 -47.2956
   -46.9694 -46.9665 -45.3661 -45.3630 -45.0706 -45.0695 -44.8938 -44.8903
   -18.3116 -18.2861 -17.8354 -17.7626 -17.6752 -17.6675 -17.6233 -17.6131
   -17.5603 -17.5358 -17.3877 -17.3596 -11.6541 -11.6107 -11.3139 -11.2422
   -10.1649 -10.0349  -9.8212  -9.6922  -9.3616  -9.3414  -9.2508  -9.2330
    -8.9566  -8.8838  -8.4760  -8.4010  -8.0262  -7.9334  -7.9052  -7.8225
    -7.6878  -7.6544  -7.5511  -7.5269  -7.4454  -7.3247  -7.2551  -7.1823
    -6.9471  -6.8688  -6.8152  -6.6306  -6.6094  -6.4578  -6.3590  -6.1788
    -6.0452  -6.0251  -5.9750  -5.4673  -5.2551  -5.1466  -5.1193  -5.0624
    -4.9913  -4.9609  -4.1304  -4.0880  -3.9837  -3.8558  -3.8405  -3.8040
    -2.5409  -2.4292  -2.3327  -2.2553  -1.3130  -0.9289  -0.8552  -0.5888
    -0.2797  -0.1455  -0.0009   0.1427   0.2706   0.2917   0.3370   0.4235
     0.5470   0.6485   0.6851   0.8328   1.1012   1.1952   1.2588   1.3593
     1.3632   1.4083   1.4881   1.5353   1.6000   1.6194   1.7805   1.8797
     2.1254   2.1678   2.2139   2.2478   2.3483   2.4192   2.4833   2.6725
     2.7861   2.8586   3.0267   3.0742   3.1122   3.1534   3.3906   3.4422
     3.4626   3.4847   3.5348   3.5730   3.6993   3.7446   3.7865   3.8855
     4.1185   4.1317   4.1731   4.2770   4.5289   4.5922   4.6892   4.8169
     5.0198   5.1106   5.1197   5.2264   5.2490   5.3205   5.4284   5.5113
     5.5587   5.6148   5.8127   5.8401   5.8731   5.8892   6.0196   6.0587
     6.2205   6.2724   6.3383   6.4008   6.4102   6.4740   7.0756   7.1487
     7.1522   7.1997   7.2864   7.3019   7.3101   7.3771   7.4193   7.4909
     7.6734   7.7145   7.7618   7.7844   7.7983   7.8329   8.0108   8.1005
     8.2304   8.3164   8.3947   8.4662   8.6314   8.6998   8.7325   8.8062
     8.8165   8.8512   9.0882   9.1191   9.1239   9.1381   9.2161   9.2929
     9.3293   9.3724   9.5584   9.5861   9.6146   9.6420   9.6777   9.6897
     9.7907   9.8229   9.9137   9.9669   9.9902  10.0215  10.0721  10.1065
    10.1941  10.2493  10.2900  10.3033  10.3354  10.3710  10.3997  10.4751
    10.5895  10.7168  10.7954  10.8658  10.9057  10.9414  11.0293  11.0874
    11.0922  11.1246  11.1420  11.1777  11.1931  11.2088  11.2356  11.2607
    11.4119  11.4469  11.5304  11.6328  11.7928  11.8349  11.8555  11.9277
    11.9381  11.9578  12.0011  12.0390  12.0540  12.0659  12.3125  12.3672
    12.6863  12.7282  12.7363  12.7544  12.7952  12.8071  12.8688  12.9236
    13.0517  13.1012  13.1235  13.1584  13.1940  13.2234  13.2909  13.3545
    13.7781  13.7870  13.8509  13.8583  13.9535  13.9672  14.0133  14.0229
    14.0471  14.0906  14.1157  14.1270  14.1608  14.2144  14.3673  14.4076
    14.4289  14.4615  14.4936  14.5258  14.6005  14.6456  14.6585  14.6843
    14.7058  14.7760  14.8044  14.8383  14.8807  14.9095  14.9402  14.9836
    14.9997  15.0468  15.0525  15.1706  15.2111  15.2423  15.2855  15.3136
    15.3824  15.4214  15.6340  15.6901  15.6995  15.7508  15.7813  15.8175
    15.8432  15.8615  15.9054  15.9768  16.0509  16.0948  16.1232  16.1509
    16.2002  16.2451  16.2940  16.3099  16.3432  16.3733  16.4354  16.4691
    16.4884  16.5051  16.6181  16.6849  16.8382  16.8809  16.9072  16.9388
    16.9734  16.9893  17.0721  17.0751  17.1881  17.2070  17.2535  17.2680
    17.3241  17.3634  17.4512  17.4800  17.5033  17.5267  17.5913  17.6378
    17.6502  17.7323  17.7489  17.7690  17.8951  17.9514  18.1420  18.1749
    18.1925  18.2231  18.3198  18.3531  18.3843  18.4004  18.4864  18.5207
    18.5242  18.5445  18.5515  18.5599  18.6037  18.6119  18.6810  18.6875
    18.7369  18.7422  18.7738  18.8242  18.8873  18.9401  19.0525  19.0828
    19.1319  19.1560  19.1610  19.2131  19.2305  19.2664  19.3433  19.3781
    19.4541  19.4777  19.5092  19.5128  19.5855  19.6610  19.9226  19.9977
    20.0718  20.0849  20.1195  20.1238  20.1611  20.1906  20.2081  20.2489
    20.3684  20.4089  20.4261  20.4586  20.4684  20.4880  20.5115  20.5333
    20.5416  20.5802  20.6060  20.6368  20.6799  20.7339  20.8913  20.9421
    20.9541  20.9898  21.0771  21.1127  21.1441  21.1664  21.1682  21.2198
    21.2260  21.3148  21.3308  21.3756  21.3927  21.4490  21.5280  21.5387
    21.5529  21.5864  21.6135  21.6232  21.6518  21.7141  21.7279  21.7703
    21.8266  21.8454  21.8534  21.8893  21.9166  21.9592  22.0304  22.0904
    22.1354  22.1465  22.1753  22.2109  22.3388  22.3712  22.3975  22.4184
    22.4306  22.4655  22.4862  22.5415  22.5710  22.5818  22.6224  22.6450
    22.6912  22.7167  22.8109  22.8415  22.8991  22.9076  22.9681  22.9749
    23.0343  23.0931  23.1231  23.1640  23.1990  23.2078  23.2485  23.2959
    23.4317  23.4713  23.4890  23.5402  23.6828  23.6903  23.7404  23.7718
    23.8634  23.8742  23.9246  23.9391  23.9478  23.9784  24.0134  24.0642
    24.0823  24.0887  24.1276  24.1624  24.1746  24.1922  24.2325  24.2578
    24.2843  24.3295  24.3637  24.4001  24.6109  24.6973  24.7144  24.7561
    24.7612  24.8039  24.8270  24.8568  24.8871  24.9153  24.9245  24.9469
    24.9762  24.9984  25.1133  25.1478  25.1848  25.2470  25.3243  25.3943
    25.3980  25.4213  25.4731  25.4779  25.5025  25.5208  25.5296  25.6130
    25.6706  25.7326  25.7444  25.7923  25.8076  25.8371  25.8638  25.8903
    25.9215  25.9661  26.0108  26.0528  26.0637  26.1104  26.1491  26.1754
    26.1839  26.2318  26.2907  26.3360  26.4030  26.4403  26.4742  26.5082
    26.5210  26.5752  26.5830  26.6201  26.8001  26.8275  26.8474  26.8533
    26.8876  26.8905  26.9607  27.0132  27.0396  27.0650  27.1182  27.1379
    27.1525  27.2156  27.2392  27.2886  27.2970  27.3197  27.3493  27.3634

     occupation numbers 
     1.0000   1.0000   1.0000   1.0000   1.0000   1.0000   1.0000   1.0000
     1.0000   1.0000   1.0000   1.0000   1.0000   1.0000   1.0000   1.0000
     1.0000   1.0000   1.0000   1.0000   1.0000   1.0000   1.0000   1.0000
     1.0000   1.0000   1.0000   1.0000   1.0000   1.0000   1.0000   1.0000
     1.0000   1.0000   1.0000   1.0000   1.0000   1.0000   1.0000   1.0000
     1.0000   1.0000   1.0000   1.0000   1.0000   1.0000   1.0000   1.0000
     1.0000   1.0000   1.0000   1.0000   1.0000   1.0000   1.0000   1.0000
     1.0000   1.0000   1.0000   1.0000   1.0000   1.0000   1.0000   1.0000
     1.0000   1.0000   1.0000   1.0000   0.0000   0.0000   0.0000   0.0000
     0.0000   0.0000   0.0000   0.0000   0.0000   0.0000   0.0000   0.0000
     0.0000   0.0000   0.0000   0.0000   0.0000   0.0000   0.0000   0.0000
     0.0000   0.0000   0.0000   0.0000   0.0000   0.0000   0.0000   0.0000
     0.0000   0.0000   0.0000   0.0000   0.0000   0.0000   0.0000   0.0000
     0.0000   0.0000   0.0000   0.0000   0.0000   0.0000   0.0000   0.0000
     0.0000   0.0000   0.0000   0.0000   0.0000   0.0000   0.0000   0.0000
     0.0000   0.0000   0.0000   0.0000   0.0000   0.0000   0.0000   0.0000
     0.0000   0.0000   0.0000   0.0000   0.0000   0.0000   0.0000   0.0000
     0.0000   0.0000   0.0000   0.0000   0.0000   0.0000   0.0000   0.0000
     0.0000   0.0000   0.0000   0.0000   0.0000   0.0000   0.0000   0.0000
     0.0000   0.0000   0.0000   0.0000   0.0000   0.0000   0.0000   0.0000
     0.0000   0.0000   0.0000   0.0000   0.0000   0.0000   0.0000   0.0000
     0.0000   0.0000   0.0000   0.0000   0.0000   0.0000   0.0000   0.0000
     0.0000   0.0000   0.0000   0.0000   0.0000   0.0000   0.0000   0.0000
     0.0000   0.0000   0.0000   0.0000   0.0000   0.0000   0.0000   0.0000
     0.0000   0.0000   0.0000   0.0000   0.0000   0.0000   0.0000   0.0000
     0.0000   0.0000   0.0000   0.0000   0.0000   0.0000   0.0000   0.0000
     0.0000   0.0000   0.0000   0.0000   0.0000   0.0000   0.0000   0.0000
     0.0000   0.0000   0.0000   0.0000   0.0000   0.0000   0.0000   0.0000
     0.0000   0.0000   0.0000   0.0000   0.0000   0.0000   0.0000   0.0000
     0.0000   0.0000   0.0000   0.0000   0.0000   0.0000   0.0000   0.0000
     0.0000   0.0000   0.0000   0.0000   0.0000   0.0000   0.0000   0.0000
     0.0000   0.0000   0.0000   0.0000   0.0000   0.0000   0.0000   0.0000
     0.0000   0.0000   0.0000   0.0000   0.0000   0.0000   0.0000   0.0000
     0.0000   0.0000   0.0000   0.0000   0.0000   0.0000   0.0000   0.0000
     0.0000   0.0000   0.0000   0.0000   0.0000   0.0000   0.0000   0.0000
     0.0000   0.0000   0.0000   0.0000   0.0000   0.0000   0.0000   0.0000
     0.0000   0.0000   0.0000   0.0000   0.0000   0.0000   0.0000   0.0000
     0.0000   0.0000   0.0000   0.0000   0.0000   0.0000   0.0000   0.0000
     0.0000   0.0000   0.0000   0.0000   0.0000   0.0000   0.0000   0.0000
     0.0000   0.0000   0.0000   0.0000   0.0000   0.0000   0.0000   0.0000
     0.0000   0.0000   0.0000   0.0000   0.0000   0.0000   0.0000   0.0000
     0.0000   0.0000   0.0000   0.0000   0.0000   0.0000   0.0000   0.0000
     0.0000   0.0000   0.0000   0.0000   0.0000   0.0000   0.0000   0.0000
     0.0000   0.0000   0.0000   0.0000   0.0000   0.0000   0.0000   0.0000
     0.0000   0.0000   0.0000   0.0000   0.0000   0.0000   0.0000   0.0000
     0.0000   0.0000   0.0000   0.0000   0.0000   0.0000   0.0000   0.0000
     0.0000   0.0000   0.0000   0.0000   0.0000   0.0000   0.0000   0.0000
     0.0000   0.0000   0.0000   0.0000   0.0000   0.0000   0.0000   0.0000
     0.0000   0.0000   0.0000   0.0000   0.0000   0.0000   0.0000   0.0000
     0.0000   0.0000   0.0000   0.0000   0.0000   0.0000   0.0000   0.0000
     0.0000   0.0000   0.0000   0.0000   0.0000   0.0000   0.0000   0.0000
     0.0000   0.0000   0.0000   0.0000   0.0000   0.0000   0.0000   0.0000
     0.0000   0.0000   0.0000   0.0000   0.0000   0.0000   0.0000   0.0000
     0.0000   0.0000   0.0000   0.0000   0.0000   0.0000   0.0000   0.0000
     0.0000   0.0000   0.0000   0.0000   0.0000   0.0000   0.0000   0.0000
     0.0000   0.0000   0.0000   0.0000   0.0000   0.0000   0.0000   0.0000
     0.0000   0.0000   0.0000   0.0000   0.0000   0.0000   0.0000   0.0000
     0.0000   0.0000   0.0000   0.0000   0.0000   0.0000   0.0000   0.0000
     0.0000   0.0000   0.0000   0.0000   0.0000   0.0000   0.0000   0.0000
     0.0000   0.0000   0.0000   0.0000   0.0000   0.0000   0.0000   0.0000
     0.0000   0.0000   0.0000   0.0000   0.0000   0.0000   0.0000   0.0000
     0.0000   0.0000   0.0000   0.0000   0.0000   0.0000   0.0000   0.0000
     0.0000   0.0000   0.0000   0.0000   0.0000   0.0000   0.0000   0.0000
     0.0000   0.0000   0.0000   0.0000   0.0000   0.0000   0.0000   0.0000
     0.0000   0.0000   0.0000   0.0000   0.0000   0.0000   0.0000   0.0000
     0.0000   0.0000   0.0000   0.0000   0.0000   0.0000   0.0000   0.0000
     0.0000   0.0000   0.0000   0.0000   0.0000   0.0000   0.0000   0.0000
     0.0000   0.0000   0.0000   0.0000   0.0000   0.0000   0.0000   0.0000
     0.0000   0.0000   0.0000   0.0000   0.0000   0.0000   0.0000   0.0000
     0.0000   0.0000   0.0000   0.0000   0.0000   0.0000   0.0000   0.0000
     0.0000   0.0000   0.0000   0.0000   0.0000   0.0000   0.0000   0.0000
     0.0000   0.0000   0.0000   0.0000   0.0000   0.0000   0.0000   0.0000
     0.0000   0.0000   0.0000   0.0000   0.0000   0.0000   0.0000   0.0000
     0.0000   0.0000   0.0000   0.0000   0.0000   0.0000   0.0000   0.0000
     0.0000   0.0000   0.0000   0.0000   0.0000   0.0000   0.0000   0.0000

          k =-0.1667-0.6736 0.0000 ( 59462 PWs)   bands (ev):

   -73.4619 -73.4616 -71.3727 -71.3723 -47.5877 -47.5864 -47.2962 -47.2957
   -46.9687 -46.9672 -45.3654 -45.3638 -45.0703 -45.0698 -44.8930 -44.8912
   -18.1284 -18.0944 -17.8464 -17.8082 -17.7735 -17.7070 -17.6690 -17.6350
   -17.6028 -17.5935 -17.4736 -17.3874 -11.6752 -11.5857 -11.4095 -11.2395
   -10.1113  -9.9816  -9.7449  -9.6102  -9.3861  -9.3595  -9.0930  -9.0145
    -8.8299  -8.7454  -8.4572  -8.3299  -8.2766  -8.1923  -8.0288  -7.8851
    -7.7892  -7.5920  -7.5055  -7.3914  -7.3259  -7.2496  -7.1547  -7.0412
    -6.9027  -6.8640  -6.7805  -6.6896  -6.6129  -6.4973  -6.4238  -6.3085
    -6.0625  -5.9659  -5.9092  -5.6743  -5.3031  -5.2020  -5.1252  -5.0181
    -4.9474  -4.9104  -4.1918  -4.1573  -4.0072  -3.8573  -3.8044  -3.7677
    -2.4936  -2.3708  -2.3232  -2.2759  -1.4765  -1.1186  -0.8668  -0.5237
    -0.3327  -0.2060  -0.1642  -0.0564   0.0426   0.1736   0.3658   0.4072
     0.4977   0.5538   0.6525   0.7265   0.7465   0.8794   0.9534   1.0640
     1.1403   1.2180   1.2755   1.3783   1.5745   1.6521   1.7038   1.7742
     1.8778   1.9868   2.0406   2.1230   2.2620   2.4092   2.5155   2.6047
     2.8045   2.8598   2.9312   3.0283   3.0442   3.1339   3.4307   3.4956
     3.6150   3.6660   3.6763   3.6911   3.7082   3.7993   4.1545   4.2082
     4.3422   4.4144   4.5940   4.6889   4.8910   4.9098   4.9918   5.0290
     5.3260   5.4005   5.4355   5.4829   5.6025   5.6653   5.6902   5.7415
     5.7803   5.8349   5.9758   6.0487   6.0661   6.1269   6.1394   6.2109
     6.3324   6.4350   6.4614   6.5396   6.7693   6.8485   6.9579   7.0109
     7.0340   7.0950   7.1182   7.1732   7.2728   7.3577   7.4023   7.4871
     7.5247   7.5797   7.6207   7.6827   7.7701   7.8186   7.9674   7.9911
     8.0521   8.1023   8.3619   8.4055   8.4883   8.5596   8.5890   8.6687
     8.8202   8.9087   9.0248   9.0472   9.0721   9.1148   9.1363   9.2103
     9.3292   9.3734   9.3803   9.4423   9.4860   9.5464   9.5584   9.6577
     9.6860   9.7973   9.8706   9.9313   9.9935  10.0371  10.1726  10.2189
    10.2949  10.3327  10.4190  10.5267  10.5459  10.5963  10.7536  10.8047
    10.8183  10.8726  10.9827  11.0175  11.0333  11.0970  11.1095  11.1738
    11.2014  11.2508  11.2941  11.3596  11.4325  11.4905  11.5482  11.5906
    11.6227  11.6358  11.6472  11.6698  11.6954  11.7312  11.8324  11.9478
    12.0366  12.0826  12.1012  12.1341  12.1595  12.2050  12.3514  12.3716
    12.4033  12.4163  12.4972  12.5798  12.6869  12.7619  12.7702  12.8632
    12.9693  13.0035  13.0199  13.0511  13.0687  13.0968  13.2271  13.2681
    13.3055  13.3236  13.3665  13.4166  13.4370  13.4764  13.4872  13.5392
    13.6024  13.6768  13.7497  13.8188  13.8732  13.8975  13.9106  13.9507
    13.9711  14.0493  14.1723  14.2905  14.3975  14.4473  14.4982  14.5697
    14.6001  14.6460  14.7395  14.8473  14.8537  14.9234  14.9554  15.0180
    15.0727  15.1033  15.1390  15.1551  15.2345  15.2941  15.4557  15.4976
    15.5066  15.5586  15.5720  15.6178  15.6292  15.7082  15.7157  15.7901
    15.8018  15.8894  15.9571  16.0138  16.0595  16.0967  16.1098  16.1322
    16.1617  16.1717  16.2538  16.3201  16.3432  16.3979  16.5344  16.5790
    16.5842  16.6361  16.6849  16.7321  16.7777  16.8011  16.8324  16.8688
    16.8992  16.9456  17.0721  17.1194  17.1510  17.1715  17.1895  17.2164
    17.2320  17.2834  17.3122  17.3531  17.4345  17.4860  17.5566  17.5740
    17.5958  17.6389  17.7897  17.8442  17.8520  17.8951  17.9391  17.9560
    18.0043  18.0169  18.0192  18.0723  18.1019  18.1406  18.1702  18.2174
    18.3125  18.3238  18.3556  18.3797  18.5035  18.5863  18.7995  18.8379
    18.9101  18.9614  18.9796  18.9863  19.0321  19.0387  19.0782  19.1006
    19.1576  19.2219  19.2595  19.2773  19.3233  19.3253  19.3471  19.4192
    19.4844  19.5691  19.6106  19.6792  19.7624  19.8232  19.8415  19.8789
    19.9636  19.9997  20.0208  20.0460  20.0569  20.1163  20.1421  20.1963
    20.2706  20.3121  20.3369  20.3504  20.4850  20.5282  20.6104  20.6825
    20.6982  20.7129  20.7744  20.7821  20.8005  20.8561  20.8886  20.9344
    20.9535  20.9923  21.0063  21.0624  21.0666  21.1189  21.2072  21.2431
    21.2692  21.2957  21.3907  21.4455  21.5037  21.5351  21.5743  21.6347
    21.6434  21.6799  21.7321  21.7850  21.7944  21.8458  21.8574  21.9069
    21.9187  21.9786  21.9830  22.0380  22.0601  22.1137  22.1776  22.2072
    22.2397  22.2663  22.2944  22.3255  22.3545  22.3717  22.3931  22.4492
    22.5742  22.6170  22.6525  22.6832  22.7974  22.8684  22.8804  22.9154
    22.9353  22.9467  22.9908  23.0054  23.1679  23.2007  23.2187  23.2501
    23.2671  23.2927  23.3146  23.3321  23.3529  23.4155  23.4586  23.4733
    23.5082  23.5259  23.5387  23.5715  23.6086  23.6969  23.7312  23.7772
    23.8716  23.8832  23.9063  23.9374  23.9675  23.9824  24.1237  24.1571
    24.1843  24.1930  24.2150  24.2258  24.2515  24.3038  24.4048  24.4283
    24.4505  24.4671  24.4963  24.5083  24.5359  24.5834  24.5989  24.6373
    24.6954  24.7394  24.7636  24.8043  24.8733  24.9348  24.9702  24.9928
    25.0307  25.0402  25.0484  25.1001  25.1475  25.2085  25.2779  25.3098
    25.3279  25.3735  25.3883  25.4080  25.4345  25.4719  25.4852  25.5436
    25.6346  25.6740  25.6961  25.7324  25.7741  25.8280  25.8762  25.9240
    25.9380  25.9685  25.9923  26.0224  26.0525  26.1115  26.1949  26.2467
    26.2908  26.3659  26.3716  26.3982  26.4331  26.4619  26.5013  26.5642
    26.6112  26.6821  26.7072  26.7226  26.7564  26.7794  26.8063  26.8738
    26.8832  26.9264  26.9328  26.9715  26.9868  27.0270  27.1046  27.1421
    27.1606  27.2214  27.3197  27.3895  27.4236  27.4564  27.4960  27.5073

     occupation numbers 
     1.0000   1.0000   1.0000   1.0000   1.0000   1.0000   1.0000   1.0000
     1.0000   1.0000   1.0000   1.0000   1.0000   1.0000   1.0000   1.0000
     1.0000   1.0000   1.0000   1.0000   1.0000   1.0000   1.0000   1.0000
     1.0000   1.0000   1.0000   1.0000   1.0000   1.0000   1.0000   1.0000
     1.0000   1.0000   1.0000   1.0000   1.0000   1.0000   1.0000   1.0000
     1.0000   1.0000   1.0000   1.0000   1.0000   1.0000   1.0000   1.0000
     1.0000   1.0000   1.0000   1.0000   1.0000   1.0000   1.0000   1.0000
     1.0000   1.0000   1.0000   1.0000   1.0000   1.0000   1.0000   1.0000
     1.0000   1.0000   1.0000   1.0000   0.0000   0.0000   0.0000   0.0000
     0.0000   0.0000   0.0000   0.0000   0.0000   0.0000   0.0000   0.0000
     0.0000   0.0000   0.0000   0.0000   0.0000   0.0000   0.0000   0.0000
     0.0000   0.0000   0.0000   0.0000   0.0000   0.0000   0.0000   0.0000
     0.0000   0.0000   0.0000   0.0000   0.0000   0.0000   0.0000   0.0000
     0.0000   0.0000   0.0000   0.0000   0.0000   0.0000   0.0000   0.0000
     0.0000   0.0000   0.0000   0.0000   0.0000   0.0000   0.0000   0.0000
     0.0000   0.0000   0.0000   0.0000   0.0000   0.0000   0.0000   0.0000
     0.0000   0.0000   0.0000   0.0000   0.0000   0.0000   0.0000   0.0000
     0.0000   0.0000   0.0000   0.0000   0.0000   0.0000   0.0000   0.0000
     0.0000   0.0000   0.0000   0.0000   0.0000   0.0000   0.0000   0.0000
     0.0000   0.0000   0.0000   0.0000   0.0000   0.0000   0.0000   0.0000
     0.0000   0.0000   0.0000   0.0000   0.0000   0.0000   0.0000   0.0000
     0.0000   0.0000   0.0000   0.0000   0.0000   0.0000   0.0000   0.0000
     0.0000   0.0000   0.0000   0.0000   0.0000   0.0000   0.0000   0.0000
     0.0000   0.0000   0.0000   0.0000   0.0000   0.0000   0.0000   0.0000
     0.0000   0.0000   0.0000   0.0000   0.0000   0.0000   0.0000   0.0000
     0.0000   0.0000   0.0000   0.0000   0.0000   0.0000   0.0000   0.0000
     0.0000   0.0000   0.0000   0.0000   0.0000   0.0000   0.0000   0.0000
     0.0000   0.0000   0.0000   0.0000   0.0000   0.0000   0.0000   0.0000
     0.0000   0.0000   0.0000   0.0000   0.0000   0.0000   0.0000   0.0000
     0.0000   0.0000   0.0000   0.0000   0.0000   0.0000   0.0000   0.0000
     0.0000   0.0000   0.0000   0.0000   0.0000   0.0000   0.0000   0.0000
     0.0000   0.0000   0.0000   0.0000   0.0000   0.0000   0.0000   0.0000
     0.0000   0.0000   0.0000   0.0000   0.0000   0.0000   0.0000   0.0000
     0.0000   0.0000   0.0000   0.0000   0.0000   0.0000   0.0000   0.0000
     0.0000   0.0000   0.0000   0.0000   0.0000   0.0000   0.0000   0.0000
     0.0000   0.0000   0.0000   0.0000   0.0000   0.0000   0.0000   0.0000
     0.0000   0.0000   0.0000   0.0000   0.0000   0.0000   0.0000   0.0000
     0.0000   0.0000   0.0000   0.0000   0.0000   0.0000   0.0000   0.0000
     0.0000   0.0000   0.0000   0.0000   0.0000   0.0000   0.0000   0.0000
     0.0000   0.0000   0.0000   0.0000   0.0000   0.0000   0.0000   0.0000
     0.0000   0.0000   0.0000   0.0000   0.0000   0.0000   0.0000   0.0000
     0.0000   0.0000   0.0000   0.0000   0.0000   0.0000   0.0000   0.0000
     0.0000   0.0000   0.0000   0.0000   0.0000   0.0000   0.0000   0.0000
     0.0000   0.0000   0.0000   0.0000   0.0000   0.0000   0.0000   0.0000
     0.0000   0.0000   0.0000   0.0000   0.0000   0.0000   0.0000   0.0000
     0.0000   0.0000   0.0000   0.0000   0.0000   0.0000   0.0000   0.0000
     0.0000   0.0000   0.0000   0.0000   0.0000   0.0000   0.0000   0.0000
     0.0000   0.0000   0.0000   0.0000   0.0000   0.0000   0.0000   0.0000
     0.0000   0.0000   0.0000   0.0000   0.0000   0.0000   0.0000   0.0000
     0.0000   0.0000   0.0000   0.0000   0.0000   0.0000   0.0000   0.0000
     0.0000   0.0000   0.0000   0.0000   0.0000   0.0000   0.0000   0.0000
     0.0000   0.0000   0.0000   0.0000   0.0000   0.0000   0.0000   0.0000
     0.0000   0.0000   0.0000   0.0000   0.0000   0.0000   0.0000   0.0000
     0.0000   0.0000   0.0000   0.0000   0.0000   0.0000   0.0000   0.0000
     0.0000   0.0000   0.0000   0.0000   0.0000   0.0000   0.0000   0.0000
     0.0000   0.0000   0.0000   0.0000   0.0000   0.0000   0.0000   0.0000
     0.0000   0.0000   0.0000   0.0000   0.0000   0.0000   0.0000   0.0000
     0.0000   0.0000   0.0000   0.0000   0.0000   0.0000   0.0000   0.0000
     0.0000   0.0000   0.0000   0.0000   0.0000   0.0000   0.0000   0.0000
     0.0000   0.0000   0.0000   0.0000   0.0000   0.0000   0.0000   0.0000
     0.0000   0.0000   0.0000   0.0000   0.0000   0.0000   0.0000   0.0000
     0.0000   0.0000   0.0000   0.0000   0.0000   0.0000   0.0000   0.0000
     0.0000   0.0000   0.0000   0.0000   0.0000   0.0000   0.0000   0.0000
     0.0000   0.0000   0.0000   0.0000   0.0000   0.0000   0.0000   0.0000
     0.0000   0.0000   0.0000   0.0000   0.0000   0.0000   0.0000   0.0000
     0.0000   0.0000   0.0000   0.0000   0.0000   0.0000   0.0000   0.0000
     0.0000   0.0000   0.0000   0.0000   0.0000   0.0000   0.0000   0.0000
     0.0000   0.0000   0.0000   0.0000   0.0000   0.0000   0.0000   0.0000
     0.0000   0.0000   0.0000   0.0000   0.0000   0.0000   0.0000   0.0000
     0.0000   0.0000   0.0000   0.0000   0.0000   0.0000   0.0000   0.0000
     0.0000   0.0000   0.0000   0.0000   0.0000   0.0000   0.0000   0.0000
     0.0000   0.0000   0.0000   0.0000   0.0000   0.0000   0.0000   0.0000
     0.0000   0.0000   0.0000   0.0000   0.0000   0.0000   0.0000   0.0000
     0.0000   0.0000   0.0000   0.0000   0.0000   0.0000   0.0000   0.0000
     0.0000   0.0000   0.0000   0.0000   0.0000   0.0000   0.0000   0.0000

          k =-0.1667-0.4811 0.0000 ( 59462 PWs)   bands (ev):

   -73.4619 -73.4616 -71.3727 -71.3723 -47.5877 -47.5864 -47.2962 -47.2957
   -46.9687 -46.9672 -45.3654 -45.3638 -45.0703 -45.0698 -44.8930 -44.8912
   -18.1284 -18.0944 -17.8459 -17.8081 -17.7744 -17.7062 -17.6692 -17.6354
   -17.6024 -17.5936 -17.4737 -17.3874 -11.6752 -11.5856 -11.4096 -11.2395
   -10.1115  -9.9817  -9.7448  -9.6102  -9.3858  -9.3593  -9.0926  -9.0151
    -8.8302  -8.7470  -8.4556  -8.3284  -8.2771  -8.1936  -8.0287  -7.8851
    -7.7898  -7.5916  -7.5053  -7.3894  -7.3262  -7.2503  -7.1552  -7.0416
    -6.9030  -6.8636  -6.7813  -6.6894  -6.6120  -6.4989  -6.4221  -6.3083
    -6.0626  -5.9661  -5.9098  -5.6741  -5.3020  -5.2028  -5.1255  -5.0181
    -4.9476  -4.9101  -4.1919  -4.1569  -4.0073  -3.8574  -3.8044  -3.7676
    -2.4934  -2.3715  -2.3227  -2.2759  -1.4770  -1.1190  -0.8658  -0.5223
    -0.3334  -0.2068  -0.1645  -0.0562   0.0434   0.1737   0.3645   0.4093
     0.4969   0.5549   0.6522   0.7253   0.7467   0.8775   0.9490   1.0605
     1.1444   1.2211   1.2793   1.3826   1.5731   1.6510   1.7032   1.7722
     1.8790   1.9818   2.0408   2.1183   2.2658   2.4123   2.5153   2.6043
     2.8008   2.8563   2.9323   3.0306   3.0490   3.1408   3.4290   3.4937
     3.6159   3.6689   3.6743   3.6883   3.7082   3.7951   4.1571   4.2106
     4.3425   4.4143   4.5919   4.6881   4.8875   4.9108   4.9883   5.0292
     5.3276   5.4023   5.4366   5.4836   5.6021   5.6636   5.6862   5.7396
     5.7833   5.8385   5.9784   6.0499   6.0658   6.1281   6.1391   6.2137
     6.3273   6.4307   6.4606   6.5378   6.7791   6.8572   6.9612   7.0119
     7.0311   7.0898   7.1129   7.1670   7.2723   7.3576   7.3998   7.4851
     7.5265   7.5817   7.6206   7.6818   7.7742   7.8227   7.9635   7.9945
     8.0478   8.1071   8.3667   8.4094   8.4833   8.5555   8.5868   8.6697
     8.8213   8.9102   9.0242   9.0464   9.0708   9.1148   9.1364   9.2101
     9.3255   9.3723   9.3785   9.4412   9.4841   9.5465   9.5597   9.6586
     9.6885   9.7994   9.8747   9.9350   9.9940  10.0384  10.1682  10.2144
    10.2959  10.3339  10.4195  10.5275  10.5475  10.5973  10.7544  10.8016
    10.8200  10.8696  10.9795  11.0139  11.0295  11.0944  11.1136  11.1709
    11.2041  11.2463  11.2989  11.3644  11.4339  11.4924  11.5451  11.5901
    11.6223  11.6335  11.6451  11.6687  11.6945  11.7272  11.8369  11.9519
    12.0440  12.0819  12.1065  12.1334  12.1588  12.2059  12.3498  12.3728
    12.4022  12.4172  12.4980  12.5806  12.6866  12.7612  12.7712  12.8636
    12.9711  13.0031  13.0217  13.0544  13.0685  13.1027  13.2248  13.2650
    13.3030  13.3199  13.3645  13.4141  13.4384  13.4742  13.4897  13.5351
    13.5979  13.6737  13.7465  13.8161  13.8740  13.8983  13.9111  13.9519
    13.9746  14.0533  14.1714  14.2892  14.3960  14.4456  14.5006  14.5714
    14.6010  14.6459  14.7386  14.8476  14.8576  14.9253  14.9532  15.0137
    15.0725  15.1034  15.1389  15.1558  15.2348  15.2943  15.4563  15.4983
    15.5071  15.5595  15.5726  15.6166  15.6309  15.7052  15.7175  15.7927
    15.8010  15.8862  15.9605  16.0170  16.0587  16.0972  16.1103  16.1338
    16.1618  16.1742  16.2504  16.3163  16.3421  16.3964  16.5370  16.5810
    16.5851  16.6381  16.6852  16.7327  16.7763  16.8014  16.8308  16.8678
    16.9003  16.9484  17.0699  17.1186  17.1461  17.1718  17.1864  17.2154
    17.2312  17.2799  17.3136  17.3547  17.4376  17.4895  17.5584  17.5694
    17.5971  17.6360  17.7916  17.8451  17.8527  17.8955  17.9360  17.9554
    18.0016  18.0158  18.0187  18.0713  18.1047  18.1437  18.1744  18.2220
    18.3095  18.3232  18.3530  18.3793  18.5039  18.5868  18.7990  18.8374
    18.9115  18.9629  18.9801  18.9862  19.0295  19.0348  19.0814  19.0942
    19.1525  19.2180  19.2592  19.2776  19.3222  19.3263  19.3502  19.4220
    19.4871  19.5719  19.6098  19.6773  19.7630  19.8237  19.8429  19.8784
    19.9664  20.0006  20.0232  20.0471  20.0580  20.1181  20.1481  20.2025
    20.2654  20.3136  20.3316  20.3524  20.4816  20.5244  20.6106  20.6823
    20.6985  20.7117  20.7756  20.7829  20.7986  20.8588  20.8894  20.9345
    20.9544  20.9938  21.0082  21.0624  21.0669  21.1179  21.2038  21.2438
    21.2653  21.2967  21.3934  21.4488  21.5058  21.5370  21.5680  21.6336
    21.6385  21.6800  21.7315  21.7811  21.7895  21.8437  21.8511  21.9093
    21.9205  21.9791  21.9873  22.0392  22.0592  22.1125  22.1745  22.2098
    22.2373  22.2684  22.2979  22.3236  22.3554  22.3719  22.3927  22.4468
    22.5751  22.6141  22.6518  22.6806  22.8001  22.8714  22.8823  22.9168
    22.9353  22.9501  22.9900  23.0091  23.1667  23.2024  23.2172  23.2543
    23.2697  23.2950  23.3182  23.3330  23.3530  23.4166  23.4595  23.4737
    23.5065  23.5246  23.5393  23.5691  23.6094  23.6987  23.7291  23.7758
    23.8713  23.8781  23.9040  23.9354  23.9647  23.9780  24.1247  24.1554
    24.1806  24.1919  24.2132  24.2236  24.2503  24.3021  24.4040  24.4318
    24.4505  24.4647  24.4957  24.5126  24.5363  24.5861  24.5993  24.6395
    24.6968  24.7395  24.7642  24.8049  24.8769  24.9392  24.9681  24.9917
    25.0285  25.0408  25.0492  25.1005  25.1485  25.2093  25.2780  25.3078
    25.3278  25.3704  25.3906  25.4080  25.4360  25.4753  25.4875  25.5455
    25.6342  25.6747  25.6958  25.7339  25.7746  25.8283  25.8765  25.9244
    25.9398  25.9680  25.9934  26.0220  26.0531  26.1116  26.1926  26.2449
    26.2895  26.3640  26.3716  26.3954  26.4341  26.4574  26.5034  26.5666
    26.6056  26.6763  26.7011  26.7202  26.7507  26.7775  26.8065  26.8736
    26.8829  26.9260  26.9382  26.9751  26.9919  27.0308  27.1080  27.1438
    27.1653  27.2276  27.3175  27.3873  27.4203  27.4550  27.4937  27.5074

     occupation numbers 
     1.0000   1.0000   1.0000   1.0000   1.0000   1.0000   1.0000   1.0000
     1.0000   1.0000   1.0000   1.0000   1.0000   1.0000   1.0000   1.0000
     1.0000   1.0000   1.0000   1.0000   1.0000   1.0000   1.0000   1.0000
     1.0000   1.0000   1.0000   1.0000   1.0000   1.0000   1.0000   1.0000
     1.0000   1.0000   1.0000   1.0000   1.0000   1.0000   1.0000   1.0000
     1.0000   1.0000   1.0000   1.0000   1.0000   1.0000   1.0000   1.0000
     1.0000   1.0000   1.0000   1.0000   1.0000   1.0000   1.0000   1.0000
     1.0000   1.0000   1.0000   1.0000   1.0000   1.0000   1.0000   1.0000
     1.0000   1.0000   1.0000   1.0000   0.0000   0.0000   0.0000   0.0000
     0.0000   0.0000   0.0000   0.0000   0.0000   0.0000   0.0000   0.0000
     0.0000   0.0000   0.0000   0.0000   0.0000   0.0000   0.0000   0.0000
     0.0000   0.0000   0.0000   0.0000   0.0000   0.0000   0.0000   0.0000
     0.0000   0.0000   0.0000   0.0000   0.0000   0.0000   0.0000   0.0000
     0.0000   0.0000   0.0000   0.0000   0.0000   0.0000   0.0000   0.0000
     0.0000   0.0000   0.0000   0.0000   0.0000   0.0000   0.0000   0.0000
     0.0000   0.0000   0.0000   0.0000   0.0000   0.0000   0.0000   0.0000
     0.0000   0.0000   0.0000   0.0000   0.0000   0.0000   0.0000   0.0000
     0.0000   0.0000   0.0000   0.0000   0.0000   0.0000   0.0000   0.0000
     0.0000   0.0000   0.0000   0.0000   0.0000   0.0000   0.0000   0.0000
     0.0000   0.0000   0.0000   0.0000   0.0000   0.0000   0.0000   0.0000
     0.0000   0.0000   0.0000   0.0000   0.0000   0.0000   0.0000   0.0000
     0.0000   0.0000   0.0000   0.0000   0.0000   0.0000   0.0000   0.0000
     0.0000   0.0000   0.0000   0.0000   0.0000   0.0000   0.0000   0.0000
     0.0000   0.0000   0.0000   0.0000   0.0000   0.0000   0.0000   0.0000
     0.0000   0.0000   0.0000   0.0000   0.0000   0.0000   0.0000   0.0000
     0.0000   0.0000   0.0000   0.0000   0.0000   0.0000   0.0000   0.0000
     0.0000   0.0000   0.0000   0.0000   0.0000   0.0000   0.0000   0.0000
     0.0000   0.0000   0.0000   0.0000   0.0000   0.0000   0.0000   0.0000
     0.0000   0.0000   0.0000   0.0000   0.0000   0.0000   0.0000   0.0000
     0.0000   0.0000   0.0000   0.0000   0.0000   0.0000   0.0000   0.0000
     0.0000   0.0000   0.0000   0.0000   0.0000   0.0000   0.0000   0.0000
     0.0000   0.0000   0.0000   0.0000   0.0000   0.0000   0.0000   0.0000
     0.0000   0.0000   0.0000   0.0000   0.0000   0.0000   0.0000   0.0000
     0.0000   0.0000   0.0000   0.0000   0.0000   0.0000   0.0000   0.0000
     0.0000   0.0000   0.0000   0.0000   0.0000   0.0000   0.0000   0.0000
     0.0000   0.0000   0.0000   0.0000   0.0000   0.0000   0.0000   0.0000
     0.0000   0.0000   0.0000   0.0000   0.0000   0.0000   0.0000   0.0000
     0.0000   0.0000   0.0000   0.0000   0.0000   0.0000   0.0000   0.0000
     0.0000   0.0000   0.0000   0.0000   0.0000   0.0000   0.0000   0.0000
     0.0000   0.0000   0.0000   0.0000   0.0000   0.0000   0.0000   0.0000
     0.0000   0.0000   0.0000   0.0000   0.0000   0.0000   0.0000   0.0000
     0.0000   0.0000   0.0000   0.0000   0.0000   0.0000   0.0000   0.0000
     0.0000   0.0000   0.0000   0.0000   0.0000   0.0000   0.0000   0.0000
     0.0000   0.0000   0.0000   0.0000   0.0000   0.0000   0.0000   0.0000
     0.0000   0.0000   0.0000   0.0000   0.0000   0.0000   0.0000   0.0000
     0.0000   0.0000   0.0000   0.0000   0.0000   0.0000   0.0000   0.0000
     0.0000   0.0000   0.0000   0.0000   0.0000   0.0000   0.0000   0.0000
     0.0000   0.0000   0.0000   0.0000   0.0000   0.0000   0.0000   0.0000
     0.0000   0.0000   0.0000   0.0000   0.0000   0.0000   0.0000   0.0000
     0.0000   0.0000   0.0000   0.0000   0.0000   0.0000   0.0000   0.0000
     0.0000   0.0000   0.0000   0.0000   0.0000   0.0000   0.0000   0.0000
     0.0000   0.0000   0.0000   0.0000   0.0000   0.0000   0.0000   0.0000
     0.0000   0.0000   0.0000   0.0000   0.0000   0.0000   0.0000   0.0000
     0.0000   0.0000   0.0000   0.0000   0.0000   0.0000   0.0000   0.0000
     0.0000   0.0000   0.0000   0.0000   0.0000   0.0000   0.0000   0.0000
     0.0000   0.0000   0.0000   0.0000   0.0000   0.0000   0.0000   0.0000
     0.0000   0.0000   0.0000   0.0000   0.0000   0.0000   0.0000   0.0000
     0.0000   0.0000   0.0000   0.0000   0.0000   0.0000   0.0000   0.0000
     0.0000   0.0000   0.0000   0.0000   0.0000   0.0000   0.0000   0.0000
     0.0000   0.0000   0.0000   0.0000   0.0000   0.0000   0.0000   0.0000
     0.0000   0.0000   0.0000   0.0000   0.0000   0.0000   0.0000   0.0000
     0.0000   0.0000   0.0000   0.0000   0.0000   0.0000   0.0000   0.0000
     0.0000   0.0000   0.0000   0.0000   0.0000   0.0000   0.0000   0.0000
     0.0000   0.0000   0.0000   0.0000   0.0000   0.0000   0.0000   0.0000
     0.0000   0.0000   0.0000   0.0000   0.0000   0.0000   0.0000   0.0000
     0.0000   0.0000   0.0000   0.0000   0.0000   0.0000   0.0000   0.0000
     0.0000   0.0000   0.0000   0.0000   0.0000   0.0000   0.0000   0.0000
     0.0000   0.0000   0.0000   0.0000   0.0000   0.0000   0.0000   0.0000
     0.0000   0.0000   0.0000   0.0000   0.0000   0.0000   0.0000   0.0000
     0.0000   0.0000   0.0000   0.0000   0.0000   0.0000   0.0000   0.0000
     0.0000   0.0000   0.0000   0.0000   0.0000   0.0000   0.0000   0.0000
     0.0000   0.0000   0.0000   0.0000   0.0000   0.0000   0.0000   0.0000
     0.0000   0.0000   0.0000   0.0000   0.0000   0.0000   0.0000   0.0000
     0.0000   0.0000   0.0000   0.0000   0.0000   0.0000   0.0000   0.0000
     0.0000   0.0000   0.0000   0.0000   0.0000   0.0000   0.0000   0.0000

          k =-0.1667-0.2887 0.0000 ( 59517 PWs)   bands (ev):

   -73.4619 -73.4615 -71.3727 -71.3723 -47.5884 -47.5858 -47.2964 -47.2956
   -46.9694 -46.9665 -45.3661 -45.3630 -45.0706 -45.0695 -44.8938 -44.8903
   -18.3117 -18.2861 -17.8353 -17.7626 -17.6750 -17.6677 -17.6232 -17.6129
   -17.5604 -17.5359 -17.3876 -17.3597 -11.6541 -11.6107 -11.3140 -11.2421
   -10.1649 -10.0349  -9.8211  -9.6922  -9.3616  -9.3414  -9.2509  -9.2330
    -8.9566  -8.8839  -8.4759  -8.4009  -8.0263  -7.9333  -7.9051  -7.8224
    -7.6878  -7.6544  -7.5510  -7.5270  -7.4454  -7.3247  -7.2551  -7.1823
    -6.9471  -6.8688  -6.8153  -6.6306  -6.6094  -6.4578  -6.3590  -6.1789
    -6.0452  -6.0251  -5.9750  -5.4673  -5.2552  -5.1466  -5.1193  -5.0624
    -4.9913  -4.9609  -4.1304  -4.0880  -3.9837  -3.8558  -3.8405  -3.8040
    -2.5408  -2.4292  -2.3327  -2.2554  -1.3130  -0.9288  -0.8553  -0.5888
    -0.2797  -0.1456  -0.0008   0.1428   0.2706   0.2917   0.3370   0.4235
     0.5471   0.6485   0.6851   0.8328   1.1012   1.1952   1.2587   1.3593
     1.3633   1.4084   1.4882   1.5353   1.6000   1.6194   1.7804   1.8796
     2.1255   2.1678   2.2140   2.2478   2.3483   2.4192   2.4832   2.6724
     2.7860   2.8586   3.0267   3.0742   3.1123   3.1534   3.3906   3.4421
     3.4627   3.4848   3.5348   3.5730   3.6993   3.7446   3.7865   3.8855
     4.1186   4.1317   4.1730   4.2770   4.5289   4.5922   4.6891   4.8168
     5.0198   5.1106   5.1197   5.2263   5.2490   5.3205   5.4283   5.5113
     5.5587   5.6149   5.8128   5.8401   5.8731   5.8892   6.0196   6.0588
     6.2205   6.2724   6.3383   6.4008   6.4102   6.4740   7.0756   7.1486
     7.1522   7.1997   7.2864   7.3019   7.3102   7.3771   7.4193   7.4909
     7.6736   7.7145   7.7618   7.7845   7.7983   7.8329   8.0109   8.1006
     8.2305   8.3164   8.3946   8.4662   8.6315   8.6999   8.7326   8.8062
     8.8164   8.8511   9.0882   9.1192   9.1240   9.1381   9.2161   9.2930
     9.3292   9.3724   9.5584   9.5861   9.6146   9.6420   9.6777   9.6897
     9.7907   9.8230   9.9137   9.9669   9.9902  10.0215  10.0721  10.1065
    10.1940  10.2491  10.2899  10.3032  10.3354  10.3710  10.3997  10.4751
    10.5895  10.7168  10.7954  10.8658  10.9056  10.9414  11.0293  11.0874
    11.0922  11.1245  11.1420  11.1777  11.1931  11.2089  11.2356  11.2607
    11.4118  11.4468  11.5304  11.6328  11.7929  11.8348  11.8556  11.9277
    11.9381  11.9578  12.0011  12.0391  12.0540  12.0660  12.3125  12.3672
    12.6863  12.7282  12.7363  12.7544  12.7952  12.8071  12.8688  12.9236
    13.0517  13.1012  13.1234  13.1584  13.1939  13.2234  13.2909  13.3545
    13.7781  13.7870  13.8509  13.8583  13.9535  13.9672  14.0133  14.0230
    14.0471  14.0906  14.1156  14.1270  14.1608  14.2144  14.3674  14.4075
    14.4289  14.4615  14.4936  14.5258  14.6005  14.6457  14.6585  14.6843
    14.7058  14.7760  14.8044  14.8383  14.8807  14.9095  14.9402  14.9836
    14.9997  15.0469  15.0525  15.1707  15.2111  15.2422  15.2854  15.3135
    15.3824  15.4214  15.6340  15.6901  15.6995  15.7509  15.7814  15.8175
    15.8433  15.8614  15.9054  15.9768  16.0510  16.0949  16.1231  16.1508
    16.2002  16.2450  16.2940  16.3099  16.3432  16.3733  16.4355  16.4691
    16.4884  16.5051  16.6180  16.6848  16.8383  16.8809  16.9072  16.9389
    16.9734  16.9893  17.0721  17.0751  17.1881  17.2070  17.2535  17.2680
    17.3240  17.3634  17.4512  17.4800  17.5034  17.5267  17.5913  17.6378
    17.6501  17.7322  17.7488  17.7689  17.8951  17.9514  18.1420  18.1749
    18.1925  18.2232  18.3198  18.3531  18.3844  18.4004  18.4864  18.5206
    18.5241  18.5445  18.5515  18.5599  18.6037  18.6119  18.6810  18.6875
    18.7369  18.7422  18.7738  18.8242  18.8873  18.9401  19.0525  19.0828
    19.1319  19.1560  19.1611  19.2131  19.2306  19.2664  19.3433  19.3781
    19.4540  19.4776  19.5091  19.5127  19.5855  19.6610  19.9225  19.9977
    20.0718  20.0849  20.1195  20.1238  20.1611  20.1906  20.2080  20.2488
    20.3684  20.4089  20.4261  20.4586  20.4684  20.4880  20.5115  20.5333
    20.5415  20.5801  20.6059  20.6368  20.6799  20.7340  20.8914  20.9421
    20.9541  20.9898  21.0772  21.1126  21.1441  21.1663  21.1682  21.2198
    21.2259  21.3149  21.3308  21.3756  21.3927  21.4491  21.5280  21.5387
    21.5528  21.5864  21.6135  21.6232  21.6519  21.7142  21.7279  21.7703
    21.8266  21.8454  21.8534  21.8893  21.9166  21.9592  22.0304  22.0903
    22.1354  22.1465  22.1753  22.2109  22.3387  22.3712  22.3977  22.4184
    22.4305  22.4656  22.4862  22.5416  22.5710  22.5818  22.6225  22.6450
    22.6912  22.7167  22.8109  22.8415  22.8991  22.9076  22.9681  22.9749
    23.0344  23.0931  23.1230  23.1640  23.1989  23.2078  23.2486  23.2960
    23.4316  23.4712  23.4890  23.5402  23.6828  23.6903  23.7404  23.7719
    23.8635  23.8741  23.9246  23.9391  23.9478  23.9784  24.0133  24.0641
    24.0823  24.0887  24.1277  24.1624  24.1745  24.1922  24.2325  24.2578
    24.2843  24.3296  24.3637  24.4001  24.6109  24.6973  24.7144  24.7562
    24.7612  24.8039  24.8270  24.8568  24.8872  24.9153  24.9245  24.9469
    24.9762  24.9985  25.1133  25.1478  25.1848  25.2470  25.3245  25.3944
    25.3980  25.4213  25.4731  25.4779  25.5026  25.5208  25.5296  25.6130
    25.6706  25.7326  25.7445  25.7924  25.8077  25.8371  25.8639  25.8903
    25.9215  25.9661  26.0107  26.0528  26.0637  26.1104  26.1491  26.1754
    26.1839  26.2318  26.2907  26.3360  26.4029  26.4403  26.4741  26.5082
    26.5211  26.5752  26.5830  26.6202  26.8001  26.8275  26.8474  26.8534
    26.8876  26.8905  26.9607  27.0132  27.0397  27.0650  27.1182  27.1380
    27.1525  27.2157  27.2392  27.2886  27.2969  27.3196  27.3493  27.3634

     occupation numbers 
     1.0000   1.0000   1.0000   1.0000   1.0000   1.0000   1.0000   1.0000
     1.0000   1.0000   1.0000   1.0000   1.0000   1.0000   1.0000   1.0000
     1.0000   1.0000   1.0000   1.0000   1.0000   1.0000   1.0000   1.0000
     1.0000   1.0000   1.0000   1.0000   1.0000   1.0000   1.0000   1.0000
     1.0000   1.0000   1.0000   1.0000   1.0000   1.0000   1.0000   1.0000
     1.0000   1.0000   1.0000   1.0000   1.0000   1.0000   1.0000   1.0000
     1.0000   1.0000   1.0000   1.0000   1.0000   1.0000   1.0000   1.0000
     1.0000   1.0000   1.0000   1.0000   1.0000   1.0000   1.0000   1.0000
     1.0000   1.0000   1.0000   1.0000   0.0000   0.0000   0.0000   0.0000
     0.0000   0.0000   0.0000   0.0000   0.0000   0.0000   0.0000   0.0000
     0.0000   0.0000   0.0000   0.0000   0.0000   0.0000   0.0000   0.0000
     0.0000   0.0000   0.0000   0.0000   0.0000   0.0000   0.0000   0.0000
     0.0000   0.0000   0.0000   0.0000   0.0000   0.0000   0.0000   0.0000
     0.0000   0.0000   0.0000   0.0000   0.0000   0.0000   0.0000   0.0000
     0.0000   0.0000   0.0000   0.0000   0.0000   0.0000   0.0000   0.0000
     0.0000   0.0000   0.0000   0.0000   0.0000   0.0000   0.0000   0.0000
     0.0000   0.0000   0.0000   0.0000   0.0000   0.0000   0.0000   0.0000
     0.0000   0.0000   0.0000   0.0000   0.0000   0.0000   0.0000   0.0000
     0.0000   0.0000   0.0000   0.0000   0.0000   0.0000   0.0000   0.0000
     0.0000   0.0000   0.0000   0.0000   0.0000   0.0000   0.0000   0.0000
     0.0000   0.0000   0.0000   0.0000   0.0000   0.0000   0.0000   0.0000
     0.0000   0.0000   0.0000   0.0000   0.0000   0.0000   0.0000   0.0000
     0.0000   0.0000   0.0000   0.0000   0.0000   0.0000   0.0000   0.0000
     0.0000   0.0000   0.0000   0.0000   0.0000   0.0000   0.0000   0.0000
     0.0000   0.0000   0.0000   0.0000   0.0000   0.0000   0.0000   0.0000
     0.0000   0.0000   0.0000   0.0000   0.0000   0.0000   0.0000   0.0000
     0.0000   0.0000   0.0000   0.0000   0.0000   0.0000   0.0000   0.0000
     0.0000   0.0000   0.0000   0.0000   0.0000   0.0000   0.0000   0.0000
     0.0000   0.0000   0.0000   0.0000   0.0000   0.0000   0.0000   0.0000
     0.0000   0.0000   0.0000   0.0000   0.0000   0.0000   0.0000   0.0000
     0.0000   0.0000   0.0000   0.0000   0.0000   0.0000   0.0000   0.0000
     0.0000   0.0000   0.0000   0.0000   0.0000   0.0000   0.0000   0.0000
     0.0000   0.0000   0.0000   0.0000   0.0000   0.0000   0.0000   0.0000
     0.0000   0.0000   0.0000   0.0000   0.0000   0.0000   0.0000   0.0000
     0.0000   0.0000   0.0000   0.0000   0.0000   0.0000   0.0000   0.0000
     0.0000   0.0000   0.0000   0.0000   0.0000   0.0000   0.0000   0.0000
     0.0000   0.0000   0.0000   0.0000   0.0000   0.0000   0.0000   0.0000
     0.0000   0.0000   0.0000   0.0000   0.0000   0.0000   0.0000   0.0000
     0.0000   0.0000   0.0000   0.0000   0.0000   0.0000   0.0000   0.0000
     0.0000   0.0000   0.0000   0.0000   0.0000   0.0000   0.0000   0.0000
     0.0000   0.0000   0.0000   0.0000   0.0000   0.0000   0.0000   0.0000
     0.0000   0.0000   0.0000   0.0000   0.0000   0.0000   0.0000   0.0000
     0.0000   0.0000   0.0000   0.0000   0.0000   0.0000   0.0000   0.0000
     0.0000   0.0000   0.0000   0.0000   0.0000   0.0000   0.0000   0.0000
     0.0000   0.0000   0.0000   0.0000   0.0000   0.0000   0.0000   0.0000
     0.0000   0.0000   0.0000   0.0000   0.0000   0.0000   0.0000   0.0000
     0.0000   0.0000   0.0000   0.0000   0.0000   0.0000   0.0000   0.0000
     0.0000   0.0000   0.0000   0.0000   0.0000   0.0000   0.0000   0.0000
     0.0000   0.0000   0.0000   0.0000   0.0000   0.0000   0.0000   0.0000
     0.0000   0.0000   0.0000   0.0000   0.0000   0.0000   0.0000   0.0000
     0.0000   0.0000   0.0000   0.0000   0.0000   0.0000   0.0000   0.0000
     0.0000   0.0000   0.0000   0.0000   0.0000   0.0000   0.0000   0.0000
     0.0000   0.0000   0.0000   0.0000   0.0000   0.0000   0.0000   0.0000
     0.0000   0.0000   0.0000   0.0000   0.0000   0.0000   0.0000   0.0000
     0.0000   0.0000   0.0000   0.0000   0.0000   0.0000   0.0000   0.0000
     0.0000   0.0000   0.0000   0.0000   0.0000   0.0000   0.0000   0.0000
     0.0000   0.0000   0.0000   0.0000   0.0000   0.0000   0.0000   0.0000
     0.0000   0.0000   0.0000   0.0000   0.0000   0.0000   0.0000   0.0000
     0.0000   0.0000   0.0000   0.0000   0.0000   0.0000   0.0000   0.0000
     0.0000   0.0000   0.0000   0.0000   0.0000   0.0000   0.0000   0.0000
     0.0000   0.0000   0.0000   0.0000   0.0000   0.0000   0.0000   0.0000
     0.0000   0.0000   0.0000   0.0000   0.0000   0.0000   0.0000   0.0000
     0.0000   0.0000   0.0000   0.0000   0.0000   0.0000   0.0000   0.0000
     0.0000   0.0000   0.0000   0.0000   0.0000   0.0000   0.0000   0.0000
     0.0000   0.0000   0.0000   0.0000   0.0000   0.0000   0.0000   0.0000
     0.0000   0.0000   0.0000   0.0000   0.0000   0.0000   0.0000   0.0000
     0.0000   0.0000   0.0000   0.0000   0.0000   0.0000   0.0000   0.0000
     0.0000   0.0000   0.0000   0.0000   0.0000   0.0000   0.0000   0.0000
     0.0000   0.0000   0.0000   0.0000   0.0000   0.0000   0.0000   0.0000
     0.0000   0.0000   0.0000   0.0000   0.0000   0.0000   0.0000   0.0000
     0.0000   0.0000   0.0000   0.0000   0.0000   0.0000   0.0000   0.0000
     0.0000   0.0000   0.0000   0.0000   0.0000   0.0000   0.0000   0.0000
     0.0000   0.0000   0.0000   0.0000   0.0000   0.0000   0.0000   0.0000
     0.0000   0.0000   0.0000   0.0000   0.0000   0.0000   0.0000   0.0000
     0.0000   0.0000   0.0000   0.0000   0.0000   0.0000   0.0000   0.0000

     highest occupied, lowest unoccupied level (ev):    -5.4673   -5.3622

     Writing all to output data dir ./VI3.save/ :
     XML data file, pseudopotentials, collected wavefunctions
 
     init_run     :      0.68s CPU      1.72s WALL (       1 calls)
     electrons    :     80.45s CPU     85.89s WALL (       1 calls)

     Called by init_run:
     wfcinit      :      0.14s CPU      0.51s WALL (       1 calls)
     wfcinit:atom :      0.00s CPU      0.00s WALL (       3 calls)
     wfcinit:wfcr :      4.89s CPU      5.38s WALL (       3 calls)
     potinit      :      0.07s CPU      0.27s WALL (       1 calls)
     hinit0       :      0.34s CPU      0.37s WALL (       1 calls)

     Called by electrons:
     c_bands      :     80.44s CPU     85.82s WALL (       1 calls)
     v_of_rho     :      0.04s CPU      0.05s WALL (       1 calls)
     v_h          :      0.01s CPU      0.01s WALL (       1 calls)
     v_xc         :      0.04s CPU      0.04s WALL (       1 calls)

     Called by c_bands:
     init_us_2    :      0.00s CPU      0.01s WALL (       6 calls)
     cegterg      :     72.95s CPU     75.51s WALL (       5 calls)

     Called by sum_band:

     Called by *egterg:
     cdiaghg      :      4.01s CPU      4.40s WALL (      68 calls)
                                        4.40s GPU  (      68 calls)
     cegterg:over :      3.83s CPU      3.83s WALL (      62 calls)
     cegterg:upda :      2.83s CPU      2.83s WALL (      62 calls)
     cegterg:last :      1.53s CPU      1.53s WALL (      14 calls)
     h_psi        :     65.07s CPU     67.88s WALL (      70 calls)
     g_psi        :      0.05s CPU      0.06s WALL (      62 calls)

     Called by h_psi:
     h_psi:calbec :      0.00s CPU      0.00s WALL (      70 calls)
     vloc_psi     :     16.58s CPU     16.75s WALL (      70 calls)
                                       16.75s GPU  (      70 calls)
     add_vuspsi   :      0.48s CPU      0.49s WALL (      70 calls)
     vhpsi        :     33.21s CPU     33.21s WALL (      70 calls)

     General routines
     calbec       :      0.03s CPU      0.12s WALL (      73 calls)
     fft          :      0.00s CPU      0.10s WALL (      23 calls)
                                        0.10s GPU  (      23 calls)
     fftw         :      1.11s CPU     11.11s WALL (  102208 calls)
                                       10.44s GPU  (  102208 calls)
 
     Parallel routines

     Hubbard U routines
     vhpsi        :     33.21s CPU     33.21s WALL (      70 calls)
 
     PWSCF        :   1m23.58s CPU   1m34.35s WALL

 
   This run was terminated on:  23: 2:20  19Jun2026            

=------------------------------------------------------------------------------=
   JOB DONE.
=------------------------------------------------------------------------------=
