
     Program PWSCF v.7.3.1 starts on  4May2026 at 14: 6:56 
        Git branch: HEAD
        Last git commit: 7fd60c9bc9fe7a7d1fe6f1049f4afba0eab9aeef-dirty
        Last git commit date: Thu Feb 29 10:18:05 2024 +0000
        Last git commit subject: Merge branch 'master_qe_7.3.1' into 'master'

     This program is part of the open-source Quantum ESPRESSO suite
     for quantum simulation of materials; please cite
         "P. Giannozzi et al., J. Phys.:Condens. Matter 21 395502 (2009);
         "P. Giannozzi et al., J. Phys.:Condens. Matter 29 465901 (2017);
         "P. Giannozzi et al., J. Chem. Phys. 152 154105 (2020);
          URL http://www.quantum-espresso.org", 
     in publications or presentations arising from this work. More details at
     http://www.quantum-espresso.org/quote

     Parallel version (MPI & OpenMP), running on      64 processor cores
     Number of MPI processes:                 4
     Threads/MPI process:                    16

     MPI processes distributed on     1 nodes
     204180 MiB available memory on the printing compute node when the environment starts
 
     Reading input from nscf.in

     Current dimensions of program PWSCF are:
     Max number of different atomic species (ntypx) = 10
     Max number of k-points (npk) =  40000
     Max angular momentum in pseudopotentials (lmaxx) =  4

     Atomic positions and unit cell read from directory:
     ./MoS2.save/
 
     Message from routine setup:
     using ibrav=0 with symmetry is DISCOURAGED, use correct ibrav instead
 
     K-points division:     npool     =       4
     Subspace diagonalization in iterative solution of the eigenvalue problem:
     a serial algorithm will be used

 
     G-vector sticks info
     --------------------
     sticks:   dense  smooth     PW     G-vecs:    dense   smooth      PW
     Sum         595     595    199                44037    44037    9025
 
     Using Slab Decomposition
 


     bravais-lattice index     =            0
     lattice parameter (alat)  =       5.9796  a.u.
     unit-cell volume          =     702.2012 (a.u.)^3
     number of atoms/cell      =            3
     number of atomic types    =            2
     number of electrons       =        26.00
     number of Kohn-Sham states=           82
     kinetic-energy cutoff     =      60.0000  Ry
     charge density cutoff     =     240.0000  Ry
     Exchange-correlation= PBE
                           (   1   4   3   4   0   0   0)
     Non magnetic calculation with spin-orbit


     GPU acceleration is ACTIVE.  4 visible GPUs per MPI rank


     celldm(1)=   5.979645  celldm(2)=   0.000000  celldm(3)=   0.000000
     celldm(4)=   0.000000  celldm(5)=   0.000000  celldm(6)=   0.000000

     crystal axes: (cart. coord. in units of alat)
               a(1) = (   1.000000   0.000000   0.000000 )  
               a(2) = (  -0.499999   0.866025   0.000000 )  
               a(3) = (   0.000000   0.000000   3.792318 )  

     reciprocal axes: (cart. coord. in units 2 pi/alat)
               b(1) = (  1.000000  0.577349 -0.000000 )  
               b(2) = (  0.000000  1.154701  0.000000 )  
               b(3) = (  0.000000 -0.000000  0.263691 )  


     PseudoPot. # 1 for Mo read from file:
     ./Mo.upf
     MD5 check sum: 4e1c3579de4f68baf863f15f5be96aa1
     Pseudo is Norm-conserving + core correction, Zval = 14.0
     Generated using ONCVPSP code by D. R. Hamann
     Using radial grid of 1640 points, 10 beta functions with: 
                l(1) =   0
                l(2) =   0
                l(3) =   1
                l(4) =   1
                l(5) =   1
                l(6) =   1
                l(7) =   2
                l(8) =   2
                l(9) =   2
               l(10) =   2

     PseudoPot. # 2 for S  read from file:
     ./S.upf
     MD5 check sum: a7319d53700e7dada26ada44d0048388
     Pseudo is Norm-conserving + core correction, Zval =  6.0
     Generated using ONCVPSP code by D. R. Hamann
     Using radial grid of 1146 points, 10 beta functions with: 
                l(1) =   0
                l(2) =   0
                l(3) =   1
                l(4) =   1
                l(5) =   1
                l(6) =   1
                l(7) =   2
                l(8) =   2
                l(9) =   2
               l(10) =   2

     atomic species   valence    mass     pseudopotential
     Mo               14.00    95.94000     Mo( 1.00)
     S                 6.00    32.07000     S ( 1.00)

      2 Sym. Ops. (no inversion) found



   Cartesian axes

     site n.     atom                  positions (alat units)
         1        Mo     tau(   1) = (   0.5000009   0.2886748   0.0000000  )
         2        S      tau(   2) = (   0.0000003   0.5773505   0.5003129  )
         3        S      tau(   3) = (   0.0000003   0.5773505  -0.5003129  )

     number of k points=     9
                       cart. coord. in units 2pi/alat
        k(    1) = (   0.0000000   0.0000000   0.0000000), wk =   0.1111111
        k(    2) = (   0.0000000   0.3849002   0.0000000), wk =   0.1111111
        k(    3) = (   0.0000000   0.7698004   0.0000000), wk =   0.1111111
        k(    4) = (   0.3333333   0.1924496   0.0000000), wk =   0.1111111
        k(    5) = (   0.3333333   0.5773498   0.0000000), wk =   0.1111111
        k(    6) = (   0.3333333   0.9622501   0.0000000), wk =   0.1111111
        k(    7) = (   0.6666667   0.3848992   0.0000000), wk =   0.1111111
        k(    8) = (   0.6666667   0.7697995   0.0000000), wk =   0.1111111
        k(    9) = (   0.6666667   1.1546997   0.0000000), wk =   0.1111111

     Dense  grid:    44037 G-vectors     FFT dimensions: (  30,  30, 120)

     Estimated max dynamical RAM per process >     175.15 MB

     Estimated total dynamical RAM >     700.60 MB
 ----2D----2D----2D----2D----2D----2D----2D----2D----2D----2D----2D----2D
  The code is running with the 2D cutoff
  Please refer to:
  Sohier, T., Calandra, M., & Mauri, F. (2017), 
  Density functional perturbation theory for gated two-dimensional heterostructures:
  Theoretical developments and application to flexural phonons in graphene.
  Physical Review B, 96(7), 75448. https://doi.org/10.1103/PhysRevB.96.075448
 ----2D----2D----2D----2D----2D----2D----2D----2D----2D----2D----2D----2D

     The potential is recalculated from file :
     ./MoS2.save/charge-density

     Starting wfcs are   36 randomized atomic wfcs +   46 random wfcs

     Band Structure Calculation
     Davidson diagonalization with overlap

     ethr =  3.85E-13,  avg # of iterations = 37.2

     total cpu time spent up to now is        4.2 secs

     End of band structure calculation

          k = 0.0000 0.0000 0.0000 (  5545 PWs)   bands (ev):

   -66.0602 -66.0602 -41.7820 -41.7820 -39.3777 -39.3777 -39.1583 -39.1583
   -19.4346 -19.4346 -18.2072 -18.2072 -10.9150 -10.9150  -7.7883  -7.7883
    -7.7250  -7.7250  -7.1377  -7.1377  -6.7531  -6.7531  -6.6680  -6.6680
    -5.3627  -5.3627  -2.5725  -2.5725  -2.4951  -2.4951  -2.3237  -2.3237
    -2.3226  -2.3226   1.0205   1.0205   3.6914   3.6914   3.9190   3.9190
     4.7708   4.7708   5.4229   5.4229   5.4943   5.4943   7.3800   7.3800
     7.3997   7.3997   7.5374   7.5374  10.6519  10.6519  10.6679  10.6679
    10.8612  10.8612  10.9685  10.9685  10.9689  10.9689  11.2256  11.2256
    13.9907  13.9907  14.2613  14.2613  14.5908  14.5908  16.0875  16.0875
    18.0251  18.0251  18.1924  18.1924  20.5029  20.5029  20.7878  20.7878
    20.8042  20.8042

          k = 0.0000 0.3849 0.0000 (  5509 PWs)   bands (ev):

   -66.0300 -66.0300 -41.8632 -41.8632 -39.4569 -39.4569 -39.3017 -39.3017
   -18.0956 -18.0956 -17.6253 -17.6253 -10.5145 -10.5145  -9.5422  -9.5422
    -9.2053  -9.2053  -8.0828  -8.0828  -7.0325  -7.0325  -6.5703  -6.5703
    -6.2647  -6.2647  -3.0344  -3.0343  -2.9308  -2.9308  -1.8580  -1.8580
    -1.2534  -1.2534   2.4861   2.4861   2.8601   2.8601   3.2793   3.2793
     5.1310   5.1310   5.5555   5.5555   7.0975   7.0975   7.5713   7.5713
     7.6819   7.6819   9.0643   9.0643   9.6161   9.6161   9.9748   9.9748
    10.1011  10.1011  12.2347  12.2347  13.5178  13.5178  13.8148  13.8148
    14.7974  14.7974  15.5305  15.5305  16.2562  16.2562  16.9604  16.9604
    17.1701  17.1701  17.6857  17.6857  19.3101  19.3101  19.4568  19.4568
    19.7145  19.7145

          k = 0.0000 0.7698 0.0000 (  5509 PWs)   bands (ev):

   -66.0300 -66.0300 -41.8632 -41.8632 -39.4569 -39.4569 -39.3017 -39.3017
   -18.0956 -18.0956 -17.6253 -17.6253 -10.5145 -10.5145  -9.5422  -9.5422
    -9.2053  -9.2053  -8.0828  -8.0828  -7.0325  -7.0325  -6.5703  -6.5703
    -6.2647  -6.2647  -3.0344  -3.0343  -2.9308  -2.9308  -1.8580  -1.8580
    -1.2534  -1.2534   2.4861   2.4861   2.8601   2.8601   3.2793   3.2793
     5.1310   5.1310   5.5555   5.5555   7.0975   7.0975   7.5713   7.5713
     7.6819   7.6819   9.0643   9.0643   9.6161   9.6161   9.9748   9.9748
    10.1011  10.1011  12.2347  12.2347  13.5178  13.5178  13.8148  13.8148
    14.7974  14.7974  15.5305  15.5305  16.2562  16.2562  16.9604  16.9604
    17.1701  17.1701  17.6857  17.6857  19.3101  19.3101  19.4568  19.4568
    19.7145  19.7145

          k = 0.3333 0.1924 0.0000 (  5509 PWs)   bands (ev):

   -66.0300 -66.0300 -41.8632 -41.8632 -39.4569 -39.4569 -39.3017 -39.3017
   -18.0956 -18.0956 -17.6253 -17.6253 -10.5145 -10.5145  -9.5422  -9.5422
    -9.2053  -9.2053  -8.0828  -8.0828  -7.0325  -7.0325  -6.5703  -6.5703
    -6.2647  -6.2647  -3.0343  -3.0343  -2.9308  -2.9308  -1.8580  -1.8580
    -1.2533  -1.2533   2.4861   2.4861   2.8601   2.8601   3.2793   3.2793
     5.1310   5.1310   5.5555   5.5555   7.0975   7.0975   7.5713   7.5713
     7.6819   7.6819   9.0643   9.0643   9.6161   9.6161   9.9748   9.9748
    10.1011  10.1011  12.2347  12.2347  13.5178  13.5178  13.8148  13.8148
    14.7974  14.7974  15.5305  15.5305  16.2562  16.2562  16.9604  16.9604
    17.1701  17.1701  17.6857  17.6857  19.3101  19.3101  19.4568  19.4568
    19.7145  19.7145

          k = 0.3333 0.5773 0.0000 (  5502 PWs)   bands (ev):

   -66.0150 -66.0150 -41.9145 -41.8919 -39.4757 -39.4279 -39.4269 -39.4110
   -17.2620 -17.2176 -17.2139 -17.2020 -10.7262 -10.7185  -9.9767  -9.9412
    -9.4266  -9.3721  -8.8480  -8.8271  -8.3085  -8.2589  -7.5662  -7.5430
    -5.3074  -5.1631  -3.5010  -3.4988  -2.3601  -2.3270  -1.7584  -1.6129
    -0.3984  -0.3146   2.0069   2.1312   2.3579   2.3619   4.7439   4.7535
     5.7436   5.7899   6.3174   6.3354   7.1165   7.1365   7.2293   7.2950
     7.5305   7.5604   7.6420   7.6609   8.9348   8.9348  10.5244  10.5838
    11.6815  11.6859  12.9374  12.9377  13.2329  13.2863  13.3183  13.4561
    14.0375  14.0439  14.7948  14.8116  15.3522  15.3736  17.6656  17.6809
    19.1507  19.1508  19.7365  19.7385  19.9921  20.0194  20.1447  20.1539
    20.3217  20.3472

          k = 0.3333 0.9623 0.0000 (  5509 PWs)   bands (ev):

   -66.0300 -66.0300 -41.8632 -41.8632 -39.4569 -39.4569 -39.3017 -39.3017
   -18.0956 -18.0956 -17.6253 -17.6253 -10.5145 -10.5145  -9.5422  -9.5422
    -9.2053  -9.2053  -8.0829  -8.0829  -7.0325  -7.0325  -6.5703  -6.5703
    -6.2647  -6.2647  -3.0344  -3.0344  -2.9308  -2.9308  -1.8581  -1.8581
    -1.2533  -1.2533   2.4861   2.4861   2.8601   2.8601   3.2792   3.2792
     5.1310   5.1310   5.5555   5.5555   7.0975   7.0975   7.5713   7.5713
     7.6819   7.6819   9.0643   9.0643   9.6161   9.6161   9.9748   9.9748
    10.1011  10.1011  12.2347  12.2347  13.5178  13.5178  13.8148  13.8148
    14.7974  14.7974  15.5305  15.5305  16.2562  16.2562  16.9604  16.9604
    17.1701  17.1701  17.6857  17.6857  19.3101  19.3101  19.4568  19.4568
    19.7145  19.7145

          k = 0.6667 0.3849 0.0000 (  5509 PWs)   bands (ev):

   -66.0300 -66.0300 -41.8632 -41.8632 -39.4569 -39.4569 -39.3017 -39.3017
   -18.0956 -18.0956 -17.6253 -17.6253 -10.5145 -10.5145  -9.5422  -9.5422
    -9.2053  -9.2053  -8.0828  -8.0828  -7.0325  -7.0325  -6.5703  -6.5703
    -6.2647  -6.2647  -3.0343  -3.0343  -2.9308  -2.9308  -1.8580  -1.8580
    -1.2533  -1.2533   2.4861   2.4861   2.8601   2.8601   3.2793   3.2793
     5.1310   5.1310   5.5555   5.5555   7.0975   7.0975   7.5713   7.5713
     7.6819   7.6819   9.0643   9.0643   9.6161   9.6161   9.9748   9.9748
    10.1011  10.1011  12.2347  12.2347  13.5178  13.5178  13.8148  13.8148
    14.7974  14.7974  15.5305  15.5305  16.2562  16.2562  16.9604  16.9604
    17.1701  17.1701  17.6857  17.6857  19.3101  19.3101  19.4568  19.4568
    19.7145  19.7145

          k = 0.6667 0.7698 0.0000 (  5509 PWs)   bands (ev):

   -66.0300 -66.0300 -41.8632 -41.8632 -39.4569 -39.4569 -39.3017 -39.3017
   -18.0956 -18.0956 -17.6253 -17.6253 -10.5145 -10.5145  -9.5422  -9.5422
    -9.2053  -9.2053  -8.0829  -8.0829  -7.0325  -7.0325  -6.5703  -6.5703
    -6.2647  -6.2647  -3.0344  -3.0344  -2.9308  -2.9308  -1.8581  -1.8581
    -1.2533  -1.2533   2.4861   2.4861   2.8601   2.8601   3.2792   3.2792
     5.1310   5.1310   5.5555   5.5555   7.0975   7.0975   7.5713   7.5713
     7.6819   7.6819   9.0643   9.0643   9.6161   9.6161   9.9748   9.9748
    10.1011  10.1011  12.2347  12.2347  13.5178  13.5178  13.8148  13.8148
    14.7974  14.7974  15.5305  15.5305  16.2562  16.2562  16.9604  16.9604
    17.1701  17.1701  17.6857  17.6857  19.3101  19.3101  19.4568  19.4568
    19.7145  19.7145

          k = 0.6667 1.1547 0.0000 (  5502 PWs)   bands (ev):

   -66.0150 -66.0150 -41.9145 -41.8919 -39.4757 -39.4279 -39.4269 -39.4110
   -17.2620 -17.2176 -17.2139 -17.2020 -10.7262 -10.7185  -9.9767  -9.9412
    -9.4266  -9.3721  -8.8480  -8.8271  -8.3085  -8.2589  -7.5662  -7.5430
    -5.3074  -5.1631  -3.5010  -3.4988  -2.3601  -2.3270  -1.7584  -1.6129
    -0.3984  -0.3146   2.0069   2.1312   2.3579   2.3619   4.7439   4.7535
     5.7436   5.7899   6.3174   6.3354   7.1165   7.1365   7.2293   7.2950
     7.5305   7.5604   7.6420   7.6609   8.9348   8.9348  10.5244  10.5838
    11.6815  11.6859  12.9374  12.9377  13.2329  13.2863  13.3183  13.4561
    14.0375  14.0439  14.7948  14.8116  15.3522  15.3736  17.6656  17.6809
    19.1507  19.1508  19.7365  19.7385  19.9921  20.0194  20.1447  20.1539
    20.3217  20.3472

     highest occupied, lowest unoccupied level (ev):    -5.1631   -3.5010

     Writing all to output data dir ./MoS2.save/ :
     XML data file, pseudopotentials, collected wavefunctions
 
     init_run     :      0.20s CPU      0.27s WALL (       1 calls)
     electrons    :      2.98s CPU      3.52s WALL (       1 calls)

     Called by init_run:
     wfcinit      :      0.00s CPU      0.00s WALL (       1 calls)
     potinit      :      0.01s CPU      0.06s WALL (       1 calls)
     hinit0       :      0.17s CPU      0.17s WALL (       1 calls)

     Called by electrons:
     c_bands      :      2.98s CPU      3.52s WALL (       1 calls)
     v_of_rho     :      0.01s CPU      0.05s WALL (       1 calls)

     Called by c_bands:
     init_us_2    :      0.00s CPU      0.00s WALL (       3 calls)
     cegterg      :      2.73s CPU      2.82s WALL (       7 calls)

     Called by *egterg:
     cdiaghg      :      0.49s CPU      0.69s WALL (     117 calls)
                                        0.69s GPU  (     117 calls)
     h_psi        :      2.28s CPU      2.45s WALL (     124 calls)
                                        2.45s GPU  (     124 calls)
     g_psi        :      0.00s CPU      0.00s WALL (     114 calls)
                                        0.00s GPU  (     114 calls)

     Called by h_psi:
     h_psi:calbec :      0.04s CPU      0.15s WALL (     124 calls)
                                        0.15s GPU  (     124 calls)
     vloc_psi     :      2.21s CPU      2.27s WALL (     124 calls)
                                        2.27s GPU  (     124 calls)
     add_vuspsi   :      0.01s CPU      0.02s WALL (     124 calls)
                                        0.02s GPU  (     124 calls)

     General routines
     calbec       :      0.03s CPU      0.15s WALL (     124 calls)
     fft          :      0.01s CPU      0.04s WALL (      14 calls)
                                        0.04s GPU  (      14 calls)
     fftw         :      0.18s CPU      0.66s WALL (   20988 calls)
                                        0.52s GPU  (   20988 calls)
     davcio       :      0.05s CPU      0.05s WALL (       6 calls)
 
     Parallel routines
 
     PWSCF        :      3.48s CPU      4.31s WALL

 
   This run was terminated on:  14: 7: 0   4May2026            

=------------------------------------------------------------------------------=
   JOB DONE.
=------------------------------------------------------------------------------=
Warning: ieee_invalid is signaling
Warning: ieee_inexact is signaling
FORTRAN STOP
Warning: ieee_invalid is signaling
Warning: ieee_inexact is signaling
FORTRAN STOP
Warning: ieee_invalid is signaling
Warning: ieee_inexact is signaling
FORTRAN STOP
Warning: ieee_inexact is signaling
FORTRAN STOP
