=== SCF for 3x3x3 ===
srun: Step created for StepId=53097982.58

     Program PWSCF v.7.3.1 starts on 18May2026 at  2:29: 8 
        Git branch: HEAD
        Last git commit: 7fd60c9bc9fe7a7d1fe6f1049f4afba0eab9aeef-dirty
        Last git commit date: Thu Feb 29 10:18:05 2024 +0000
        Last git commit subject: Merge branch 'master_qe_7.3.1' into 'master'

     This program is part of the open-source Quantum ESPRESSO suite
     for quantum simulation of materials; please cite
         "P. Giannozzi et al., J. Phys.:Condens. Matter 21 395502 (2009);
         "P. Giannozzi et al., J. Phys.:Condens. Matter 29 465901 (2017);
         "P. Giannozzi et al., J. Chem. Phys. 152 154105 (2020);
          URL http://www.quantum-espresso.org", 
     in publications or presentations arising from this work. More details at
     http://www.quantum-espresso.org/quote

     Parallel version (MPI & OpenMP), running on      64 processor cores
     Number of MPI processes:                 4
     Threads/MPI process:                    16

     MPI processes distributed on     1 nodes
     230139 MiB available memory on the printing compute node when the environment starts
 
     Reading input from scf.in

     Current dimensions of program PWSCF are:
     Max number of different atomic species (ntypx) = 10
     Max number of k-points (npk) =  40000
     Max angular momentum in pseudopotentials (lmaxx) =  4
     Message from routine setup:
     using ibrav=0 with symmetry is DISCOURAGED, use correct ibrav instead
 
     K-points division:     npool     =       4
     Subspace diagonalization in iterative solution of the eigenvalue problem:
     a serial algorithm will be used

 
     G-vector sticks info
     --------------------
     sticks:   dense  smooth     PW     G-vecs:    dense   smooth      PW
     Sum         361     361    109                 4573     4573     749
 
     Using Slab Decomposition
 


     bravais-lattice index     =            0
     lattice parameter (alat)  =       7.2558  a.u.
     unit-cell volume          =     270.1072 (a.u.)^3
     number of atoms/cell      =            2
     number of atomic types    =            1
     number of electrons       =         8.00
     number of Kohn-Sham states=           16
     kinetic-energy cutoff     =      25.0000  Ry
     charge density cutoff     =     100.0000  Ry
     scf convergence threshold =      1.0E-10
     mixing beta               =       0.7000
     number of iterations used =            8  plain     mixing
     Exchange-correlation= PBE
                           (   1   4   3   4   0   0   0)
     Noncollinear calculation without spin-orbit


     GPU acceleration is ACTIVE.  4 visible GPUs per MPI rank


     celldm(1)=   7.255773  celldm(2)=   0.000000  celldm(3)=   0.000000
     celldm(4)=   0.000000  celldm(5)=   0.000000  celldm(6)=   0.000000

     crystal axes: (cart. coord. in units of alat)
               a(1) = (   0.707107   0.707107   0.000000 )  
               a(2) = (   0.000000   0.707107   0.707107 )  
               a(3) = (   0.707107   0.000000   0.707107 )  

     reciprocal axes: (cart. coord. in units 2 pi/alat)
               b(1) = (  0.707107  0.707107 -0.707107 )  
               b(2) = ( -0.707107  0.707107  0.707107 )  
               b(3) = (  0.707107 -0.707107  0.707107 )  


     PseudoPot. # 1 for Si read from file:
     ./Si.upf
     MD5 check sum: d8e8ea3dd55db7858206a05f373c9c65
     Pseudo is Norm-conserving + core correction, Zval =  4.0
     Generated using ONCVPSP code by D. R. Hamann
     Using radial grid of 1528 points,  6 beta functions with: 
                l(1) =   0
                l(2) =   0
                l(3) =   1
                l(4) =   1
                l(5) =   2
                l(6) =   2

     atomic species   valence    mass     pseudopotential
     Si                4.00    28.08500     Si( 1.00)

     48 Sym. Ops., with inversion, found (36 have fractional translation)



   Cartesian axes

     site n.     atom                  positions (alat units)
         1        Si     tau(   1) = (  -0.1767767  -0.1767767  -0.1767767  )
         2        Si     tau(   2) = (   0.1767767   0.1767767   0.1767767  )

     number of k points=     4
                       cart. coord. in units 2pi/alat
        k(    1) = (   0.0000000   0.0000000   0.0000000), wk =   0.0370370
        k(    2) = (   0.2357023  -0.2357023   0.2357023), wk =   0.2962963
        k(    3) = (   0.0000000  -0.0000000   0.4714045), wk =   0.2222222
        k(    4) = (  -0.4714045   0.4714045  -0.0000000), wk =   0.4444444

     Dense  grid:     4573 G-vectors     FFT dimensions: (  24,  24,  24)

     Estimated max dynamical RAM per process >      12.45 MB

     Estimated total dynamical RAM >      36.39 MB

     Initial potential from superposition of free atoms

     starting charge       7.9988, renormalised to       8.0000
     Starting wfcs are   16 randomized atomic wfcs

     total cpu time spent up to now is        0.4 secs

     per-process dynamical memory:   296.9 Mb

     Self-consistent Calculation

     iteration #  1     ecut=    25.00 Ry     beta= 0.70
     Davidson diagonalization with overlap
     ethr =  1.00E-02,  avg # of iterations =  4.0

     Threshold (ethr) on eigenvalues was too large:
     Diagonalizing with lowered threshold

     Davidson diagonalization with overlap
     ethr =  9.26E-04,  avg # of iterations =  1.5

     total cpu time spent up to now is        0.5 secs

     total energy              =     -16.87501912 Ry
     estimated scf accuracy    <       0.07345732 Ry

     iteration #  2     ecut=    25.00 Ry     beta= 0.70
     Davidson diagonalization with overlap
     ethr =  9.18E-04,  avg # of iterations =  1.3

     total cpu time spent up to now is        0.5 secs

     total energy              =     -16.87798870 Ry
     estimated scf accuracy    <       0.00278813 Ry

     iteration #  3     ecut=    25.00 Ry     beta= 0.70
     Davidson diagonalization with overlap
     ethr =  3.49E-05,  avg # of iterations =  3.3

     total cpu time spent up to now is        0.5 secs

     total energy              =     -16.87816031 Ry
     estimated scf accuracy    <       0.00004166 Ry

     iteration #  4     ecut=    25.00 Ry     beta= 0.70
     Davidson diagonalization with overlap
     ethr =  5.21E-07,  avg # of iterations =  3.5

     total cpu time spent up to now is        0.6 secs

     total energy              =     -16.87817025 Ry
     estimated scf accuracy    <       0.00000070 Ry

     iteration #  5     ecut=    25.00 Ry     beta= 0.70
     Davidson diagonalization with overlap
     ethr =  8.72E-09,  avg # of iterations =  5.0

     total cpu time spent up to now is        0.6 secs

     total energy              =     -16.87817047 Ry
     estimated scf accuracy    <       0.00000004 Ry

     iteration #  6     ecut=    25.00 Ry     beta= 0.70
     Davidson diagonalization with overlap
     ethr =  5.45E-10,  avg # of iterations =  3.8

     total cpu time spent up to now is        0.7 secs

     total energy              =     -16.87817047 Ry
     estimated scf accuracy    <          2.9E-10 Ry

     iteration #  7     ecut=    25.00 Ry     beta= 0.70
     Davidson diagonalization with overlap
     ethr =  3.66E-12,  avg # of iterations =  6.5

     total cpu time spent up to now is        0.7 secs

     End of self-consistent calculation

          k = 0.0000 0.0000 0.0000 (   537 PWs)   bands (ev):

    -5.6462  -5.6462   6.3444   6.3444   6.3444   6.3444   6.3444   6.3444
     8.8580   8.8580   8.8580   8.8580   8.8580   8.8580   9.6968   9.6968

          k = 0.2357-0.2357 0.2357 (   577 PWs)   bands (ev):

    -4.2668  -4.2668   0.9828   0.9828   5.3296   5.3296   5.3296   5.3296
     8.0829   8.0829   9.8046   9.8046   9.8046   9.8046  14.1929  14.1929

          k = 0.0000-0.0000 0.4714 (   576 PWs)   bands (ev):

    -3.7389  -3.7389   1.3190   1.3190   3.8984   3.8984   3.8984   3.8984
     7.0316   7.0316   8.2943   8.2943  13.5921  13.5921  13.5921  13.5921

          k =-0.4714 0.4714-0.0000 (   572 PWs)   bands (ev):

    -2.3740  -2.3740  -0.4470  -0.4470   1.8911   1.8911   4.2072   4.2072
     7.8707   7.8707  12.1382  12.1382  12.7813  12.7813  13.4101  13.4101

     highest occupied, lowest unoccupied level (ev):     6.3444    7.0316

!    total energy              =     -16.87817047 Ry
     estimated scf accuracy    <          2.2E-11 Ry

     The total energy is the sum of the following terms:
     one-electron contribution =       4.97816600 Ry
     hartree contribution      =       1.15370008 Ry
     xc contribution           =      -6.21109280 Ry
     ewald contribution        =     -16.79894375 Ry

     convergence has been achieved in   7 iterations

     Writing all to output data dir ./silicon.save/ :
     XML data file, charge density, pseudopotentials, collected wavefunctions
 
     init_run     :      0.16s CPU      0.27s WALL (       1 calls)
     electrons    :      0.41s CPU      0.34s WALL (       1 calls)

     Called by init_run:
     wfcinit      :      0.07s CPU      0.15s WALL (       1 calls)
     potinit      :      0.02s CPU      0.05s WALL (       1 calls)
     hinit0       :      0.06s CPU      0.05s WALL (       1 calls)

     Called by electrons:
     c_bands      :      0.25s CPU      0.24s WALL (       8 calls)
     sum_band     :      0.04s CPU      0.04s WALL (       8 calls)
     v_of_rho     :      0.05s CPU      0.06s WALL (       8 calls)
     mix_rho      :      0.03s CPU      0.03s WALL (       8 calls)

     Called by c_bands:
     init_us_2    :      0.02s CPU      0.00s WALL (      17 calls)
     cegterg      :      0.16s CPU      0.16s WALL (       8 calls)

     Called by *egterg:
     cdiaghg      :      0.04s CPU      0.05s WALL (      25 calls)
                                        0.05s GPU  (      25 calls)
     h_psi        :      0.16s CPU      0.22s WALL (      27 calls)
                                        0.22s GPU  (      27 calls)
     g_psi        :      0.00s CPU      0.00s WALL (      18 calls)
                                        0.00s GPU  (      18 calls)

     Called by h_psi:
     h_psi:calbec :      0.03s CPU      0.09s WALL (      27 calls)
                                        0.09s GPU  (      27 calls)
     vloc_psi     :      0.12s CPU      0.12s WALL (      27 calls)
                                        0.12s GPU  (      27 calls)
     add_vuspsi   :      0.00s CPU      0.00s WALL (      27 calls)
                                        0.00s GPU  (      27 calls)

     General routines
     calbec       :      0.03s CPU      0.09s WALL (      27 calls)
     fft          :      0.00s CPU      0.02s WALL (     126 calls)
                                        0.02s GPU  (     126 calls)
     ffts         :      0.00s CPU      0.00s WALL (      32 calls)
                                        0.00s GPU  (      32 calls)
     fftw         :      0.01s CPU      0.04s WALL (    1676 calls)
                                        0.03s GPU  (    1676 calls)
 
     Parallel routines
 
     PWSCF        :      0.70s CPU      0.75s WALL

 
   This run was terminated on:   2:29: 8  18May2026            

=------------------------------------------------------------------------------=
   JOB DONE.
=------------------------------------------------------------------------------=
Warning: ieee_invalid is signaling
Warning: ieee_divide_by_zero is signaling
Warning: ieee_inexact is signaling
FORTRAN STOP
Warning: ieee_invalid is signaling
Warning: ieee_divide_by_zero is signaling
Warning: ieee_inexact is signaling
FORTRAN STOP
Warning: ieee_invalid is signaling
Warning: ieee_divide_by_zero is signaling
Warning: ieee_inexact is signaling
FORTRAN STOP
Warning: ieee_invalid is signaling
Warning: ieee_divide_by_zero is signaling
Warning: ieee_inexact is signaling
FORTRAN STOP
