=== SCF for 4x4x4_nb100 ===

     Program PWSCF v.7.3.1 starts on 18May2026 at  3: 5:22 
        Git branch: HEAD
        Last git commit: 7fd60c9bc9fe7a7d1fe6f1049f4afba0eab9aeef-dirty
        Last git commit date: Thu Feb 29 10:18:05 2024 +0000
        Last git commit subject: Merge branch 'master_qe_7.3.1' into 'master'

     This program is part of the open-source Quantum ESPRESSO suite
     for quantum simulation of materials; please cite
         "P. Giannozzi et al., J. Phys.:Condens. Matter 21 395502 (2009);
         "P. Giannozzi et al., J. Phys.:Condens. Matter 29 465901 (2017);
         "P. Giannozzi et al., J. Chem. Phys. 152 154105 (2020);
          URL http://www.quantum-espresso.org", 
     in publications or presentations arising from this work. More details at
     http://www.quantum-espresso.org/quote

     Parallel version (MPI & OpenMP), running on      64 processor cores
     Number of MPI processes:                 4
     Threads/MPI process:                    16

     MPI processes distributed on     1 nodes
     230482 MiB available memory on the printing compute node when the environment starts
 
     Reading input from scf.in

     Current dimensions of program PWSCF are:
     Max number of different atomic species (ntypx) = 10
     Max number of k-points (npk) =  40000
     Max angular momentum in pseudopotentials (lmaxx) =  4
     Message from routine setup:
     using ibrav=0 with symmetry is DISCOURAGED, use correct ibrav instead
 
     K-points division:     npool     =       4
     Subspace diagonalization in iterative solution of the eigenvalue problem:
     a serial algorithm will be used

 
     G-vector sticks info
     --------------------
     sticks:   dense  smooth     PW     G-vecs:    dense   smooth      PW
     Sum         583     583    187                 9257     9257    1591
 
     Using Slab Decomposition
 


     bravais-lattice index     =            0
     lattice parameter (alat)  =       7.2558  a.u.
     unit-cell volume          =     270.1072 (a.u.)^3
     number of atoms/cell      =            2
     number of atomic types    =            1
     number of electrons       =         8.00
     number of Kohn-Sham states=           12
     kinetic-energy cutoff     =      40.0000  Ry
     charge density cutoff     =     160.0000  Ry
     scf convergence threshold =      1.0E-10
     mixing beta               =       0.7000
     number of iterations used =            8  plain     mixing
     Exchange-correlation= PBE
                           (   1   4   3   4   0   0   0)
     Noncollinear calculation without spin-orbit


     GPU acceleration is ACTIVE.  4 visible GPUs per MPI rank


     celldm(1)=   7.255773  celldm(2)=   0.000000  celldm(3)=   0.000000
     celldm(4)=   0.000000  celldm(5)=   0.000000  celldm(6)=   0.000000

     crystal axes: (cart. coord. in units of alat)
               a(1) = (   0.707107   0.707107   0.000000 )  
               a(2) = (   0.000000   0.707107   0.707107 )  
               a(3) = (   0.707107   0.000000   0.707107 )  

     reciprocal axes: (cart. coord. in units 2 pi/alat)
               b(1) = (  0.707107  0.707107 -0.707107 )  
               b(2) = ( -0.707107  0.707107  0.707107 )  
               b(3) = (  0.707107 -0.707107  0.707107 )  


     PseudoPot. # 1 for Si read from file:
     ./Si.upf
     MD5 check sum: d8e8ea3dd55db7858206a05f373c9c65
     Pseudo is Norm-conserving + core correction, Zval =  4.0
     Generated using ONCVPSP code by D. R. Hamann
     Using radial grid of 1528 points,  6 beta functions with: 
                l(1) =   0
                l(2) =   0
                l(3) =   1
                l(4) =   1
                l(5) =   2
                l(6) =   2

     atomic species   valence    mass     pseudopotential
     Si                4.00    28.08500     Si( 1.00)

     48 Sym. Ops., with inversion, found (36 have fractional translation)



   Cartesian axes

     site n.     atom                  positions (alat units)
         1        Si     tau(   1) = (  -0.1767767  -0.1767767  -0.1767767  )
         2        Si     tau(   2) = (   0.1767767   0.1767767   0.1767767  )

     number of k points=     8
                       cart. coord. in units 2pi/alat
        k(    1) = (   0.0000000   0.0000000   0.0000000), wk =   0.0156250
        k(    2) = (   0.1767767  -0.1767767   0.1767767), wk =   0.1250000
        k(    3) = (  -0.3535534   0.3535534  -0.3535534), wk =   0.0625000
        k(    4) = (   0.0000000   0.0000000   0.3535534), wk =   0.0937500
        k(    5) = (  -0.5303301   0.5303301  -0.1767767), wk =   0.3750000
        k(    6) = (  -0.3535534   0.3535534   0.0000000), wk =   0.1875000
        k(    7) = (   0.0000000   0.0000000  -0.7071068), wk =   0.0468750
        k(    8) = (   0.3535534   0.0000000  -0.7071068), wk =   0.0937500

     Dense  grid:     9257 G-vectors     FFT dimensions: (  30,  30,  30)

     Estimated max dynamical RAM per process >      23.68 MB

     Estimated total dynamical RAM >      67.62 MB

     Initial potential from superposition of free atoms

     starting charge       7.9988, renormalised to       8.0000
     Starting wfcs are   16 randomized atomic wfcs

     total cpu time spent up to now is        0.4 secs

     per-process dynamical memory:   303.5 Mb

     Self-consistent Calculation

     iteration #  1     ecut=    40.00 Ry     beta= 0.70
     Davidson diagonalization with overlap
     ethr =  1.00E-02,  avg # of iterations =  3.1

     Threshold (ethr) on eigenvalues was too large:
     Diagonalizing with lowered threshold

     Davidson diagonalization with overlap
     ethr =  7.88E-04,  avg # of iterations =  2.1

     total cpu time spent up to now is        0.5 secs

     total energy              =     -16.90793640 Ry
     estimated scf accuracy    <       0.06249270 Ry

     iteration #  2     ecut=    40.00 Ry     beta= 0.70
     Davidson diagonalization with overlap
     ethr =  7.81E-04,  avg # of iterations =  1.0

     total cpu time spent up to now is        0.6 secs

     total energy              =     -16.91019299 Ry
     estimated scf accuracy    <       0.00259894 Ry

     iteration #  3     ecut=    40.00 Ry     beta= 0.70
     Davidson diagonalization with overlap
     ethr =  3.25E-05,  avg # of iterations =  3.5

     total cpu time spent up to now is        0.6 secs

     total energy              =     -16.91039776 Ry
     estimated scf accuracy    <       0.00003179 Ry

     iteration #  4     ecut=    40.00 Ry     beta= 0.70
     Davidson diagonalization with overlap
     ethr =  3.97E-07,  avg # of iterations =  4.8

     total cpu time spent up to now is        0.7 secs

     total energy              =     -16.91041460 Ry
     estimated scf accuracy    <       0.00000053 Ry

     iteration #  5     ecut=    40.00 Ry     beta= 0.70
     Davidson diagonalization with overlap
     ethr =  6.64E-09,  avg # of iterations =  4.5

     total cpu time spent up to now is        0.8 secs

     total energy              =     -16.91041478 Ry
     estimated scf accuracy    <       0.00000005 Ry

     iteration #  6     ecut=    40.00 Ry     beta= 0.70
     Davidson diagonalization with overlap
     ethr =  5.65E-10,  avg # of iterations =  3.1

     total cpu time spent up to now is        0.9 secs

     total energy              =     -16.91041479 Ry
     estimated scf accuracy    <          6.9E-10 Ry

     iteration #  7     ecut=    40.00 Ry     beta= 0.70
     Davidson diagonalization with overlap
     ethr =  8.68E-12,  avg # of iterations =  4.9

     total cpu time spent up to now is        0.9 secs

     End of self-consistent calculation

          k = 0.0000 0.0000 0.0000 (  1139 PWs)   bands (ev):

    -5.6970  -5.6970   6.2782   6.2782   6.2782   6.2782   6.2782   6.2782
     8.8156   8.8156   8.8156   8.8156

          k = 0.1768-0.1768 0.1768 (  1152 PWs)   bands (ev):

    -4.8968  -4.8968   2.3395   2.3395   5.5127   5.5127   5.5127   5.5127
     8.2899   8.2899   9.7617   9.7617

          k =-0.3536 0.3536-0.3536 (  1158 PWs)   bands (ev):

    -3.3630  -3.3630  -0.7073  -0.7073   5.0724   5.0724   5.0724   5.0724
     7.8004   7.8004   9.5942   9.5942

          k = 0.0000 0.0000 0.3536 (  1174 PWs)   bands (ev):

    -4.6145  -4.6145   2.7544   2.7544   4.3769   4.3769   4.3769   4.3769
     7.3881   7.3881   9.3916   9.3916

          k =-0.5303 0.5303-0.1768 (  1150 PWs)   bands (ev):

    -2.9768  -2.9768  -0.1161  -0.1161   2.7290   2.7290   4.0614   4.0614
     7.7788   7.7788  10.7144  10.7144

          k =-0.3536 0.3536 0.0000 (  1159 PWs)   bands (ev):

    -3.6518  -3.6518   0.7875   0.7875   2.5092   2.5092   4.9421   4.9421
     8.7075   8.7075  11.0435  11.0435

          k = 0.0000 0.0000-0.7071 (  1162 PWs)   bands (ev):

    -1.5499  -1.5499  -1.5499  -1.5499   3.4123   3.4123   3.4123   3.4123
     6.9688   6.9688   6.9688   6.9688

          k = 0.3536 0.0000-0.7071 (  1144 PWs)   bands (ev):

    -1.3851  -1.3851  -1.3851  -1.3851   2.4085   2.4085   2.4085   2.4085
    10.5401  10.5401  10.5401  10.5401

     highest occupied, lowest unoccupied level (ev):     6.2782    6.9688

!    total energy              =     -16.91041479 Ry
     estimated scf accuracy    <          3.5E-11 Ry

     The total energy is the sum of the following terms:
     one-electron contribution =       4.96493541 Ry
     hartree contribution      =       1.11883361 Ry
     xc contribution           =      -6.19524004 Ry
     ewald contribution        =     -16.79894377 Ry

     convergence has been achieved in   7 iterations

     Writing all to output data dir ./silicon.save/ :
     XML data file, charge density, pseudopotentials, collected wavefunctions
 
     init_run     :      0.15s CPU      0.28s WALL (       1 calls)
     electrons    :      0.58s CPU      0.52s WALL (       1 calls)

     Called by init_run:
     wfcinit      :      0.06s CPU      0.14s WALL (       1 calls)
     potinit      :      0.02s CPU      0.06s WALL (       1 calls)
     hinit0       :      0.06s CPU      0.07s WALL (       1 calls)

     Called by electrons:
     c_bands      :      0.38s CPU      0.39s WALL (       8 calls)
     sum_band     :      0.05s CPU      0.06s WALL (       8 calls)
     v_of_rho     :      0.04s CPU      0.06s WALL (       8 calls)
     mix_rho      :      0.03s CPU      0.04s WALL (       8 calls)

     Called by c_bands:
     init_us_2    :      0.03s CPU      0.01s WALL (      34 calls)
     cegterg      :      0.29s CPU      0.31s WALL (      16 calls)

     Called by *egterg:
     cdiaghg      :      0.06s CPU      0.08s WALL (      69 calls)
                                        0.08s GPU  (      69 calls)
     h_psi        :      0.24s CPU      0.30s WALL (      73 calls)
                                        0.30s GPU  (      73 calls)
     g_psi        :      0.00s CPU      0.00s WALL (      55 calls)
                                        0.00s GPU  (      55 calls)

     Called by h_psi:
     h_psi:calbec :      0.02s CPU      0.07s WALL (      73 calls)
                                        0.06s GPU  (      73 calls)
     vloc_psi     :      0.21s CPU      0.22s WALL (      73 calls)
                                        0.22s GPU  (      73 calls)
     add_vuspsi   :      0.01s CPU      0.01s WALL (      73 calls)
                                        0.01s GPU  (      73 calls)

     General routines
     calbec       :      0.02s CPU      0.06s WALL (      73 calls)
     fft          :      0.00s CPU      0.03s WALL (     126 calls)
                                        0.02s GPU  (     126 calls)
     ffts         :      0.00s CPU      0.00s WALL (      32 calls)
                                        0.00s GPU  (      32 calls)
     fftw         :      0.02s CPU      0.07s WALL (    2768 calls)
                                        0.05s GPU  (    2768 calls)
 
     Parallel routines
 
     PWSCF        :      0.92s CPU      0.95s WALL

 
   This run was terminated on:   3: 5:23  18May2026            

=------------------------------------------------------------------------------=
   JOB DONE.
=------------------------------------------------------------------------------=
Warning: ieee_invalid is signaling
Warning: ieee_divide_by_zero is signaling
Warning: ieee_inexact is signaling
FORTRAN STOP
Warning: ieee_invalid is signaling
Warning: ieee_divide_by_zero is signaling
Warning: ieee_inexact is signaling
FORTRAN STOP
Warning: ieee_invalid is signaling
Warning: ieee_divide_by_zero is signaling
Warning: ieee_inexact is signaling
FORTRAN STOP
Warning: ieee_invalid is signaling
Warning: ieee_divide_by_zero is signaling
Warning: ieee_inexact is signaling
FORTRAN STOP
